391
 Atoms. Timestep: 0
Fe 0 0 0
Fe 1.433 1.433 1.433
Fe 2.866 0 0
Fe 4.299 1.433 1.433
Fe 5.732 0 0
Fe 7.165 1.433 1.433
Fe 8.598 0 0
Fe 10.031 1.433 1.433
Fe 11.464 0 0
Fe 12.897 1.433 1.433
Fe 14.33 0 0
Fe 15.763 1.433 1.433
Fe 0 2.866 0
Fe 1.433 4.299 1.433
Fe 2.866 2.866 0
Fe 4.299 4.299 1.433
Fe 5.732 2.866 0
Fe 7.165 4.299 1.433
Fe 8.598 2.866 0
Fe 10.031 4.299 1.433
Fe 11.464 2.866 0
Fe 12.897 4.299 1.433
Fe 14.33 2.866 0
Fe 15.763 4.299 1.433
Fe 0 5.732 0
Fe 1.433 7.165 1.433
Fe 2.866 5.732 0
Fe 4.299 7.165 1.433
Fe 5.732 5.732 0
Fe 7.165 7.165 1.433
Fe 8.598 5.732 0
Fe 10.031 7.165 1.433
Fe 11.464 5.732 0
Fe 12.897 7.165 1.433
Fe 14.33 5.732 0
Fe 15.763 7.165 1.433
Fe 0 8.598 0
Fe 1.433 10.031 1.433
Fe 2.866 8.598 0
Fe 4.299 10.031 1.433
Fe 5.732 8.598 0
Fe 7.165 10.031 1.433
Fe 8.598 8.598 0
Fe 10.031 10.031 1.433
Fe 11.464 8.598 0
Fe 12.897 10.031 1.433
Fe 14.33 8.598 0
Fe 15.763 10.031 1.433
Fe 0 11.464 0
Fe 1.433 12.897 1.433
Fe 2.866 11.464 0
Fe 4.299 12.897 1.433
Fe 5.732 11.464 0
Fe 7.165 12.897 1.433
Fe 8.598 11.464 0
Fe 10.031 12.897 1.433
Fe 11.464 11.464 0
Fe 12.897 12.897 1.433
Fe 14.33 11.464 0
Fe 15.763 12.897 1.433
Fe 0 14.33 0
Fe 1.433 15.763 1.433
Fe 2.866 14.33 0
Fe 4.299 15.763 1.433
Fe 5.732 14.33 0
Fe 7.165 15.763 1.433
Fe 8.598 14.33 0
Fe 10.031 15.763 1.433
Fe 11.464 14.33 0
Fe 12.897 15.763 1.433
Fe 14.33 14.33 0
Fe 15.763 15.763 1.433
Fe 0 0 2.866
Fe 1.433 1.433 4.299
Fe 2.866 0 2.866
Fe 4.299 1.433 4.299
Fe 5.732 0 2.866
Fe 7.165 1.433 4.299
Fe 8.598 0 2.866
Fe 10.031 1.433 4.299
Fe 11.464 0 2.866
Fe 12.897 1.433 4.299
Fe 14.33 0 2.866
Fe 15.763 1.433 4.299
Fe 0 2.866 2.866
Fe 1.433 4.299 4.299
Fe 2.866 2.866 2.866
Fe 4.299 4.299 4.299
Fe 5.732 2.866 2.866
Fe 7.165 4.299 4.299
Fe 8.598 2.866 2.866
Fe 10.031 4.299 4.299
Fe 11.464 2.866 2.866
Fe 12.897 4.299 4.299
Fe 14.33 2.866 2.866
Fe 15.763 4.299 4.299
Fe 0 5.732 2.866
Fe 1.433 7.165 4.299
Fe 2.866 5.732 2.866
Fe 4.299 7.165 4.299
Fe 5.732 5.732 2.866
Fe 7.165 7.165 4.299
Fe 8.598 5.732 2.866
Fe 10.031 7.165 4.299
Fe 11.464 5.732 2.866
Fe 12.897 7.165 4.299
Fe 14.33 5.732 2.866
Fe 15.763 7.165 4.299
Fe 0 8.598 2.866
Fe 1.433 10.031 4.299
Fe 2.866 8.598 2.866
Fe 4.299 10.031 4.299
Fe 5.732 8.598 2.866
Fe 7.165 10.031 4.299
Fe 8.598 8.598 2.866
Fe 10.031 10.031 4.299
Fe 11.464 8.598 2.866
Fe 12.897 10.031 4.299
Fe 14.33 8.598 2.866
Fe 15.763 10.031 4.299
Fe 0 11.464 2.866
Fe 1.433 12.897 4.299
Fe 2.866 11.464 2.866
Fe 4.299 12.897 4.299
Fe 5.732 11.464 2.866
Fe 7.165 12.897 4.299
Fe 8.598 11.464 2.866
Fe 10.031 12.897 4.299
Fe 11.464 11.464 2.866
Fe 12.897 12.897 4.299
Fe 14.33 11.464 2.866
Fe 15.763 12.897 4.299
Fe 0 14.33 2.866
Fe 1.433 15.763 4.299
Fe 2.866 14.33 2.866
Fe 4.299 15.763 4.299
Fe 5.732 14.33 2.866
Fe 7.165 15.763 4.299
Fe 8.598 14.33 2.866
Fe 10.031 15.763 4.299
Fe 11.464 14.33 2.866
Fe 12.897 15.763 4.299
Fe 14.33 14.33 2.866
Fe 15.763 15.763 4.299
Fe 0 0 5.732
Fe 1.433 1.433 7.165
Fe 2.866 0 5.732
Fe 4.299 1.433 7.165
Fe 5.732 0 5.732
Fe 7.165 1.433 7.165
Fe 8.598 0 5.732
Fe 10.031 1.433 7.165
Fe 11.464 0 5.732
Fe 12.897 1.433 7.165
Fe 14.33 0 5.732
Fe 15.763 1.433 7.165
Fe 0 2.866 5.732
Fe 1.433 4.299 7.165
Fe 2.866 2.866 5.732
Fe 4.299 4.299 7.165
Fe 5.732 2.866 5.732
Fe 7.165 4.299 7.165
Fe 8.598 2.866 5.732
Fe 10.031 4.299 7.165
Fe 11.464 2.866 5.732
Fe 12.897 4.299 7.165
Fe 14.33 2.866 5.732
Fe 15.763 4.299 7.165
Fe 0 5.732 5.732
Fe 1.433 7.165 7.165
Fe 2.866 5.732 5.732
Fe 4.299 7.165 7.165
Fe 5.732 5.732 5.732
Fe 7.165 7.165 7.165
Fe 8.598 5.732 5.732
Fe 10.031 7.165 7.165
Fe 11.464 5.732 5.732
Fe 12.897 7.165 7.165
Fe 14.33 5.732 5.732
Fe 15.763 7.165 7.165
Fe 0 8.598 5.732
Fe 1.433 10.031 7.165
Fe 2.866 8.598 5.732
Fe 4.299 10.031 7.165
Fe 5.732 8.598 5.732
Fe 7.165 10.031 7.165
Fe 8.598 8.598 5.732
Fe 10.031 10.031 7.165
Fe 11.464 8.598 5.732
Fe 12.897 10.031 7.165
Fe 14.33 8.598 5.732
Fe 15.763 10.031 7.165
Fe 0 11.464 5.732
Fe 1.433 12.897 7.165
Fe 2.866 11.464 5.732
Fe 4.299 12.897 7.165
Fe 5.732 11.464 5.732
Fe 7.165 12.897 7.165
Fe 8.598 11.464 5.732
Fe 10.031 12.897 7.165
Fe 11.464 11.464 5.732
Fe 12.897 12.897 7.165
Fe 14.33 11.464 5.732
Fe 15.763 12.897 7.165
Fe 0 14.33 5.732
Fe 1.433 15.763 7.165
Fe 2.866 14.33 5.732
Fe 4.299 15.763 7.165
Fe 5.732 14.33 5.732
Fe 7.165 15.763 7.165
Fe 8.598 14.33 5.732
Fe 10.031 15.763 7.165
Fe 11.464 14.33 5.732
Fe 12.897 15.763 7.165
Fe 14.33 14.33 5.732
Fe 15.763 15.763 7.165
Fe 0 0 8.598
Fe 1.433 1.433 10.031
Fe 2.866 0 8.598
Fe 4.299 1.433 10.031
Fe 5.732 0 8.598
Fe 7.165 1.433 10.031
Fe 8.598 0 8.598
Fe 10.031 1.433 10.031
Fe 11.464 0 8.598
Fe 12.897 1.433 10.031
Fe 14.33 0 8.598
Fe 15.763 1.433 10.031
Fe 0 2.866 8.598
Fe 1.433 4.299 10.031
Fe 2.866 2.866 8.598
Fe 4.299 4.299 10.031
Fe 5.732 2.866 8.598
Fe 7.165 4.299 10.031
Fe 8.598 2.866 8.598
Fe 10.031 4.299 10.031
Fe 11.464 2.866 8.598
Fe 12.897 4.299 10.031
Fe 14.33 2.866 8.598
Fe 15.763 4.299 10.031
Fe 0 5.732 8.598
Fe 1.433 7.165 10.031
Fe 2.866 5.732 8.598
Fe 4.299 7.165 10.031
Fe 5.732 5.732 8.598
Fe 7.165 7.165 10.031
Fe 8.598 5.732 8.598
Fe 10.031 7.165 10.031
Fe 11.464 5.732 8.598
Fe 12.897 7.165 10.031
Fe 14.33 5.732 8.598
Fe 15.763 7.165 10.031
Fe 0 8.598 8.598
Fe 1.433 10.031 10.031
Fe 2.866 8.598 8.598
Fe 4.299 10.031 10.031
Fe 5.732 8.598 8.598
Fe 7.165 10.031 10.031
Fe 8.598 8.598 8.598
Fe 10.031 10.031 10.031
Fe 11.464 8.598 8.598
Fe 12.897 10.031 10.031
Fe 14.33 8.598 8.598
Fe 15.763 10.031 10.031
Fe 0 11.464 8.598
Fe 1.433 12.897 10.031
Fe 2.866 11.464 8.598
Fe 4.299 12.897 10.031
Fe 5.732 11.464 8.598
Fe 7.165 12.897 10.031
Fe 8.598 11.464 8.598
Fe 10.031 12.897 10.031
Fe 11.464 11.464 8.598
Fe 12.897 12.897 10.031
Fe 14.33 11.464 8.598
Fe 15.763 12.897 10.031
Fe 0 14.33 8.598
Fe 1.433 15.763 10.031
Fe 2.866 14.33 8.598
Fe 4.299 15.763 10.031
Fe 5.732 14.33 8.598
Fe 7.165 15.763 10.031
Fe 8.598 14.33 8.598
Fe 10.031 15.763 10.031
Fe 11.464 14.33 8.598
Fe 12.897 15.763 10.031
Fe 14.33 14.33 8.598
Fe 15.763 15.763 10.031
Fe 0 0 11.464
Fe 1.433 1.433 12.897
Fe 2.866 0 11.464
Fe 4.299 1.433 12.897
Fe 5.732 0 11.464
Fe 7.165 1.433 12.897
Fe 8.598 0 11.464
Fe 10.031 1.433 12.897
Fe 11.464 0 11.464
Fe 12.897 1.433 12.897
Fe 14.33 0 11.464
Fe 15.763 1.433 12.897
Fe 0 2.866 11.464
Fe 1.433 4.299 12.897
Fe 2.866 2.866 11.464
Fe 4.299 4.299 12.897
Fe 5.732 2.866 11.464
Fe 7.165 4.299 12.897
Fe 8.598 2.866 11.464
Fe 10.031 4.299 12.897
Fe 11.464 2.866 11.464
Fe 12.897 4.299 12.897
Fe 14.33 2.866 11.464
Fe 15.763 4.299 12.897
Fe 0 5.732 11.464
Fe 1.433 7.165 12.897
Fe 2.866 5.732 11.464
Fe 4.299 7.165 12.897
Fe 5.732 5.732 11.464
Fe 7.165 7.165 12.897
Fe 8.598 5.732 11.464
Fe 10.031 7.165 12.897
Fe 11.464 5.732 11.464
Fe 12.897 7.165 12.897
Fe 14.33 5.732 11.464
Fe 15.763 7.165 12.897
Fe 0 8.598 11.464
Fe 1.433 10.031 12.897
Fe 2.866 8.598 11.464
Fe 4.299 10.031 12.897
Fe 5.732 8.598 11.464
Fe 7.165 10.031 12.897
Fe 8.598 8.598 11.464
Fe 10.031 10.031 12.897
Fe 11.464 8.598 11.464
Fe 12.897 10.031 12.897
Fe 14.33 8.598 11.464
Fe 15.763 10.031 12.897
Fe 0 11.464 11.464
Fe 1.433 12.897 12.897
Fe 2.866 11.464 11.464
Fe 4.299 12.897 12.897
Fe 5.732 11.464 11.464
Fe 7.165 12.897 12.897
Fe 8.598 11.464 11.464
Fe 10.031 12.897 12.897
Fe 11.464 11.464 11.464
Fe 12.897 12.897 12.897
Fe 14.33 11.464 11.464
Fe 15.763 12.897 12.897
Fe 0 14.33 11.464
Fe 1.433 15.763 12.897
Fe 2.866 14.33 11.464
Fe 4.299 15.763 12.897
Fe 5.732 14.33 11.464
Fe 7.165 15.763 12.897
Fe 8.598 14.33 11.464
Fe 10.031 15.763 12.897
Fe 11.464 14.33 11.464
Fe 12.897 15.763 12.897
Fe 14.33 14.33 11.464
Fe 15.763 15.763 12.897
O 10.3398 7.11656 39.8541
O 14.4847 12.1813 24.1008
O 9.02615 10.8167 33.8009
O 13.224 2.74041 28.1364
O 6.78115 9.97647 24.9151
O 11.9247 4.84956 22.5291
O 13.7251 13.159 37.3517
O 8.32036 13.8232 38.3686
O 3.38608 11.2123 33.0263
O 14.4461 8.96811 31.9023
O 4.94495 1.5844 31.5208
O 4.73922 11.7412 20.1856
O 8.68376 2.69729 36.733
O 9.92423 15.4735 28.862
O 3.95219 10.6967 39.3489
O 2.82712 2.80654 39.2802
O 4.75765 6.13329 35.3089
O 7.57191 2.15964 24.948
O 2.57752 6.54999 29.7758
O 2.88589 1.77321 20.3774
O 2.55062 12.9078 25.7281
O 9.1572 6.63184 29.8053
O 10.9482 15.4271 20.6091
O 13.8131 2.30161 35.066
O 10.062 9.53803 20.4655
O 1.44613 7.17725 23.3544
O 2.3572 15.0373 36.721
O 15.1073 15.5887 31.272
O 15.5621 6.77892 39.8912
O 1.50977 1.92353 26.5169
O 6.50294 5.66546 21.3069
391
 Atoms. Timestep: 100
Fe 0 0 0
Fe 1.433 1.433 1.433
Fe 2.866 0 0
Fe 4.299 1.433 1.433
Fe 5.732 0 0
Fe 7.165 1.433 1.433
Fe 8.598 0 0
Fe 10.031 1.433 1.433
Fe 11.464 0 0
Fe 12.897 1.433 1.433
Fe 14.33 0 0
Fe 15.763 1.433 1.433
Fe 0 2.866 0
Fe 1.433 4.299 1.433
Fe 2.866 2.866 0
Fe 4.299 4.299 1.433
Fe 5.732 2.866 0
Fe 7.165 4.299 1.433
Fe 8.598 2.866 0
Fe 10.031 4.299 1.433
Fe 11.464 2.866 0
Fe 12.897 4.299 1.433
Fe 14.33 2.866 0
Fe 15.763 4.299 1.433
Fe 0 5.732 0
Fe 1.433 7.165 1.433
Fe 2.866 5.732 0
Fe 4.299 7.165 1.433
Fe 5.732 5.732 0
Fe 7.165 7.165 1.433
Fe 8.598 5.732 0
Fe 10.031 7.165 1.433
Fe 11.464 5.732 0
Fe 12.897 7.165 1.433
Fe 14.33 5.732 0
Fe 15.763 7.165 1.433
Fe 0 8.598 0
Fe 1.433 10.031 1.433
Fe 2.866 8.598 0
Fe 4.299 10.031 1.433
Fe 5.732 8.598 0
Fe 7.165 10.031 1.433
Fe 8.598 8.598 0
Fe 10.031 10.031 1.433
Fe 11.464 8.598 0
Fe 12.897 10.031 1.433
Fe 14.33 8.598 0
Fe 15.763 10.031 1.433
Fe 0 11.464 0
Fe 1.433 12.897 1.433
Fe 2.866 11.464 0
Fe 4.299 12.897 1.433
Fe 5.732 11.464 0
Fe 7.165 12.897 1.433
Fe 8.598 11.464 0
Fe 10.031 12.897 1.433
Fe 11.464 11.464 0
Fe 12.897 12.897 1.433
Fe 14.33 11.464 0
Fe 15.763 12.897 1.433
Fe 0 14.33 0
Fe 1.433 15.763 1.433
Fe 2.866 14.33 0
Fe 4.299 15.763 1.433
Fe 5.732 14.33 0
Fe 7.165 15.763 1.433
Fe 8.598 14.33 0
Fe 10.031 15.763 1.433
Fe 11.464 14.33 0
Fe 12.897 15.763 1.433
Fe 14.33 14.33 0
Fe 15.763 15.763 1.433
Fe 0 0 2.866
Fe 1.36274 1.3321 4.3877
Fe 2.866 0 2.866
Fe 4.27222 1.51664 4.22042
Fe 5.732 0 2.866
Fe 7.186 1.53055 4.37346
Fe 8.598 0 2.866
Fe 9.9721 1.38298 4.19983
Fe 11.464 0 2.866
Fe 12.8041 1.44271 4.29741
Fe 14.33 0 2.866
Fe 15.7689 1.46091 4.22065
Fe 0 2.866 2.866
Fe 1.3809 4.36015 4.37377
Fe 2.866 2.866 2.866
Fe 4.23705 4.38709 4.28557
Fe 5.732 2.866 2.866
Fe 7.21303 4.36434 4.27431
Fe 8.598 2.866 2.866
Fe 10.1062 4.27759 4.19953
Fe 11.464 2.866 2.866
Fe 12.9542 4.35463 4.30859
Fe 14.33 2.866 2.866
Fe 15.7641 4.30641 4.38073
Fe 0 5.732 2.866
Fe 1.48753 7.05546 4.23153
Fe 2.866 5.732 2.866
Fe 4.38965 7.15815 4.28344
Fe 5.732 5.732 2.866
Fe 7.13309 7.17256 4.21836
Fe 8.598 5.732 2.866
Fe 9.95514 7.17204 4.39959
Fe 11.464 5.732 2.866
Fe 12.9028 7.21019 4.24444
Fe 14.33 5.732 2.866
Fe 15.7374 7.16154 4.23468
Fe 0 8.598 2.866
Fe 1.55469 10.0786 4.34422
Fe 2.866 8.598 2.866
Fe 4.30587 9.92739 4.24627
Fe 5.732 8.598 2.866
Fe 7.19056 10.0652 4.39691
Fe 8.598 8.598 2.866
Fe 10.0497 10.1275 4.27842
Fe 11.464 8.598 2.866
Fe 12.9048 10.1382 4.29765
Fe 14.33 8.598 2.866
Fe 15.8229 9.99973 4.28277
Fe 0 11.464 2.866
Fe 1.35399 12.9759 4.38436
Fe 2.866 11.464 2.866
Fe 4.1957 12.8218 4.20882
Fe 5.732 11.464 2.866
Fe 7.24345 12.9834 4.33731
Fe 8.598 11.464 2.866
Fe 9.97134 12.8302 4.32271
Fe 11.464 11.464 2.866
Fe 12.8227 12.8591 4.37181
Fe 14.33 11.464 2.866
Fe 15.8214 12.9509 4.33263
Fe 0 14.33 2.866
Fe 1.34995 15.8286 4.31657
Fe 2.866 14.33 2.866
Fe 4.29195 15.6998 4.33242
Fe 5.732 14.33 2.866
Fe 7.21062 15.7357 4.27291
Fe 8.598 14.33 2.866
Fe 10.0322 15.8461 4.25686
Fe 11.464 14.33 2.866
Fe 12.9922 15.7745 4.23798
Fe 14.33 14.33 2.866
Fe 15.73 15.685 4.23202
Fe -0.00549534 -0.0346999 5.71202
Fe 1.44938 1.37028 7.12244
Fe 2.92788 -0.0341123 5.80238
Fe 4.37089 1.51784 7.22256
Fe 5.74137 -0.0639592 5.6985
Fe 7.18546 1.32959 7.15701
Fe 8.5446 0.038426 5.71412
Fe 10.0092 1.34502 7.17888
Fe 11.5132 0.0778252 5.71802
Fe 13.0084 1.50013 7.1686
Fe 14.2727 -0.0774711 5.70081
Fe 15.7184 1.44568 7.15502
Fe 0.0353759 2.8036 5.82017
Fe 1.34697 4.38438 7.25645
Fe 2.93238 2.81386 5.64845
Fe 4.23102 4.24963 7.21974
Fe 5.79519 2.95264 5.69313
Fe 7.25058 4.26929 7.18242
Fe 8.70407 2.76145 5.8097
Fe 9.95086 4.26304 7.24342
Fe 11.5091 2.93697 5.79702
Fe 12.8728 4.2125 7.12336
Fe 14.2667 2.83722 5.66657
Fe 15.8166 4.29332 7.26603
Fe 0.0958804 5.64173 5.66693
Fe 1.3926 7.25789 7.23978
Fe 2.96248 5.6485 5.75797
Fe 4.41633 7.20519 7.24032
Fe 5.72719 5.7843 5.63642
Fe 7.19431 7.09278 7.06877
Fe 8.52255 5.75798 5.62505
Fe 10.0528 7.06954 7.17901
Fe 11.3743 5.66048 5.66828
Fe 12.798 7.12883 7.07195
Fe 14.4116 5.72598 5.67057
Fe 15.8019 7.15399 7.11678
Fe 0.0804946 8.52343 5.62268
Fe 1.41403 10.1036 7.17776
Fe 2.96042 8.51235 5.77411
Fe 4.24208 9.94734 7.23207
Fe 5.72104 8.68608 5.70402
Fe 7.13738 10.0681 7.18575
Fe 8.58482 8.49856 5.73823
Fe 9.94737 9.96529 7.07448
Fe 11.3932 8.55586 5.62648
Fe 12.9935 10.0741 7.23898
Fe 14.3243 8.53577 5.82016
Fe 15.69 10.0003 7.25377
Fe -0.0170213 11.5082 5.68273
Fe 1.53389 12.8594 7.20459
Fe 2.97646 11.3725 5.82036
Fe 4.29865 13.001 7.26535
Fe 5.74269 11.4824 5.74432
Fe 7.16176 12.916 7.20735
Fe 8.58777 11.5469 5.65733
Fe 10.0083 12.9715 7.13923
Fe 11.5494 11.5526 5.68814
Fe 12.9042 12.9168 7.20172
Fe 14.3791 11.5215 5.83277
Fe 15.8155 12.8608 7.14533
Fe -0.062553 14.3715 5.80906
Fe 1.39432 15.7268 7.07817
Fe 2.86176 14.2349 5.83384
Fe 4.19663 15.8036 7.21587
Fe 5.74624 14.3247 5.63849
Fe 7.11618 15.8059 7.26563
Fe 8.58069 14.3632 5.66906
Fe 10.1088 15.7678 7.17621
Fe 11.3845 14.2952 5.69982
Fe 12.8018 15.8153 7.13551
Fe 14.2451 14.3313 5.74411
Fe 15.8332 15.7245 7.14942
Fe -0.0734701 -0.0662045 8.57816
Fe 1.53607 1.39282 10.0146
Fe 2.81394 0.101348 8.65863
Fe 4.27383 1.43764 10.0984
Fe 5.70863 0.000358986 8.54664
Fe 7.08628 1.46195 9.94325
Fe 8.64888 0.0380501 8.70281
Fe 10.1135 1.492 10.0959
Fe 11.4116 0.0577457 8.56043
Fe 12.8267 1.39804 10.0563
Fe 14.2598 0.0498937 8.51825
Fe 15.8313 1.39233 10.0238
Fe 0.0154479 2.74585 8.61727
Fe 1.4262 4.25936 9.99138
Fe 2.86809 2.96961 8.60689
Fe 4.22256 4.38932 10.0634
Fe 5.69113 2.78316 8.55658
Fe 7.10752 4.30215 9.98307
Fe 8.69962 2.83924 8.61769
Fe 9.95216 4.245 10.017
Fe 11.4952 2.75489 8.66734
Fe 12.8861 4.28345 9.98878
Fe 14.4356 2.93053 8.63155
Fe 15.8193 4.30208 9.99483
Fe 0.0504085 5.77443 8.55802
Fe 1.34385 7.25778 10.1446
Fe 2.76885 5.82375 8.51867
Fe 4.19075 7.09297 9.97909
Fe 5.64693 5.78044 8.60226
Fe 7.07756 7.16216 10.0582
Fe 8.56341 5.65026 8.68924
Fe 9.94841 7.05172 10.0973
Fe 11.4415 5.62145 8.59238
Fe 13.0009 7.18309 10.0628
Fe 14.3426 5.82569 8.53054
Fe 15.8136 7.06971 10.0964
Fe -0.0338879 8.66293 8.5011
Fe 1.41122 9.93282 9.99206
Fe 2.78351 8.60716 8.61401
Fe 4.21702 10.0534 10.0846
Fe 5.77257 8.69783 8.66909
Fe 7.18812 10.0036 9.95525
Fe 8.56842 8.59059 8.59015
Fe 10.1402 9.99522 10.0573
Fe 11.5481 8.58686 8.50302
Fe 12.8749 10.0727 10.0128
Fe 14.2698 8.63284 8.52428
Fe 15.8192 9.9955 10.0658
Fe -0.0509715 11.3976 8.5675
Fe 1.48589 12.8635 9.978
Fe 2.8927 11.4035 8.60595
Fe 4.31169 12.9232 10.0864
Fe 5.81159 11.3934 8.64119
Fe 7.08241 12.8513 9.94863
Fe 8.59837 11.4801 8.62794
Fe 9.98334 12.9103 10.027
Fe 11.3771 11.3599 8.48759
Fe 12.8266 12.9375 10.0316
Fe 14.3841 11.4319 8.61496
Fe 15.8272 12.83 9.92556
Fe -0.0512916 14.2172 8.53972
Fe 1.47615 15.7854 10.0612
Fe 2.80756 14.4249 8.66725
Fe 4.21033 15.8784 10.0307
Fe 5.72236 14.4213 8.56072
Fe 7.06468 15.8259 10.0459
Fe 8.69239 14.3495 8.64124
Fe 10.0424 15.6967 9.97866
Fe 11.4689 14.245 8.59107
Fe 12.9574 15.7153 10.0102
Fe 14.4358 14.3668 8.54962
Fe 15.832 15.803 9.96465
Fe 0.0160583 0.0790141 11.398
Fe 1.51649 1.49802 12.9253
Fe 2.89409 0.071653 11.4501
Fe 4.22903 1.51497 12.8795
Fe 5.67292 -0.0613683 11.527
Fe 7.23763 1.35381 12.8298
Fe 8.69159 0.0422969 11.4954
Fe 9.95666 1.52831 12.8002
Fe 11.3742 -0.0874253 11.4406
Fe 12.9725 1.33793 12.8322
Fe 14.4024 -0.09031 11.5077
Fe 15.6798 1.38104 12.9558
Fe -0.0880735 2.77966 11.4121
Fe 1.35917 4.3695 12.8094
Fe 2.86805 2.887 11.3662
Fe 4.29614 4.23427 12.9393
Fe 5.6859 2.80061 11.5441
Fe 7.26931 4.31162 12.9641
Fe 8.59623 2.94134 11.4065
Fe 9.98483 4.40596 12.8411
Fe 11.501 2.89206 11.3631
Fe 12.8466 4.34744 12.9578
Fe 14.3403 2.93069 11.3676
Fe 15.672 4.38395 12.9558
Fe -0.0668232 5.6364 11.3742
Fe 1.39408 7.12163 13.0079
Fe 2.88301 5.75659 11.5063
Fe 4.33743 7.28407 12.9478
Fe 5.7584 5.73492 11.5114
Fe 7.26542 7.07447 12.8603
Fe 8.53795 5.76648 11.4517
Fe 10.1001 7.15267 13.0295
Fe 11.5367 5.64299 11.4843
Fe 12.9108 7.22617 12.8849
Fe 14.3433 5.79644 11.3963
Fe 15.8472 7.25428 12.8332
Fe -0.0269063 8.70179 11.5171
Fe 1.458 10.1079 12.9975
Fe 2.77255 8.63452 11.4802
Fe 4.2787 10.0705 13.0324
Fe 5.69926 8.70898 11.3951
Fe 7.23863 10.1348 12.9795
Fe 8.59198 8.54277 11.4199
Fe 10.0625 10.1373 12.9876
Fe 11.4555 8.53399 11.3573
Fe 12.9473 9.93576 12.9327
Fe 14.339 8.63785 11.42
Fe 15.6631 9.94087 12.844
Fe -0.0813408 11.5071 11.3791
Fe 1.49125 12.9254 12.9422
Fe 2.88844 11.4331 11.3843
Fe 4.39926 12.8367 12.8199
Fe 5.73786 11.414 11.5316
Fe 7.25494 12.8081 13.0044
Fe 8.70185 11.4549 11.4844
Fe 10.1305 12.9558 13.0357
Fe 11.5468 11.5537 11.4845
Fe 12.8107 12.943 12.8068
Fe 14.3485 11.4357 11.4049
Fe 15.7122 12.8697 12.8891
Fe 0.0215129 14.317 11.462
Fe 1.4341 15.752 12.9973
Fe 2.78242 14.3514 11.3745
Fe 4.28252 15.726 13.0175
Fe 5.69055 14.4004 11.4693
Fe 7.14322 15.7111 12.9939
Fe 8.52225 14.3498 11.5028
Fe 10.0457 15.8121 12.831
Fe 11.4497 14.2938 11.5176
Fe 12.9346 15.7897 12.8517
Fe 14.2649 14.2471 11.5247
Fe 15.7666 15.6753 12.8353
O 10.2671 6.95494 39.7074
O 14.3461 12.2295 24.2598
O 8.79694 10.7776 33.8226
O 13.2161 2.61909 28.0543
O 6.68939 9.91619 24.7001
O 12.1355 4.72233 22.3971
O 13.7163 13.2084 37.5359
O 8.1077 13.9535 38.4673
O 3.42693 11.2294 33.1904
O 14.681 9.08179 31.901
O 4.75282 1.46574 31.4628
O 4.77999 11.5594 20.3587
O 8.87711 2.83805 36.5093
O 9.93985 15.387 29.07
O 4.12637 10.5147 39.4321
O 2.85533 2.66428 39.2464
O 4.52898 6.33552 35.2735
O 7.42714 2.22387 25.0092
O 2.40989 6.52791 29.8173
O 2.79596 1.72664 20.2473
O 2.7203 12.7141 25.6739
O 9.2784 6.87278 29.5716
O 10.8087 15.644 20.5749
O 13.993 2.2637 34.8462
O 9.92317 9.3391 20.4433
O 1.66553 7.33315 23.4474
O 2.52908 15.101 36.5435
O 14.922 15.6363 31.0884
O 15.6463 6.63787 39.8386
O 1.72282 2.03503 26.4138
O 6.65269 5.63144 21.5043
391
 Atoms. Timestep: 200
Fe 0 0 0
Fe 1.433 1.433 1.433
Fe 2.866 0 0
Fe 4.299 1.433 1.433
Fe 5.732 0 0
Fe 7.165 1.433 1.433
Fe 8.598 0 0
Fe 10.031 1.433 1.433
Fe 11.464 0 0
Fe 12.897 1.433 1.433
Fe 14.33 0 0
Fe 15.763 1.433 1.433
Fe 0 2.866 0
Fe 1.433 4.299 1.433
Fe 2.866 2.866 0
Fe 4.299 4.299 1.433
Fe 5.732 2.866 0
Fe 7.165 4.299 1.433
Fe 8.598 2.866 0
Fe 10.031 4.299 1.433
Fe 11.464 2.866 0
Fe 12.897 4.299 1.433
Fe 14.33 2.866 0
Fe 15.763 4.299 1.433
Fe 0 5.732 0
Fe 1.433 7.165 1.433
Fe 2.866 5.732 0
Fe 4.299 7.165 1.433
Fe 5.732 5.732 0
Fe 7.165 7.165 1.433
Fe 8.598 5.732 0
Fe 10.031 7.165 1.433
Fe 11.464 5.732 0
Fe 12.897 7.165 1.433
Fe 14.33 5.732 0
Fe 15.763 7.165 1.433
Fe 0 8.598 0
Fe 1.433 10.031 1.433
Fe 2.866 8.598 0
Fe 4.299 10.031 1.433
Fe 5.732 8.598 0
Fe 7.165 10.031 1.433
Fe 8.598 8.598 0
Fe 10.031 10.031 1.433
Fe 11.464 8.598 0
Fe 12.897 10.031 1.433
Fe 14.33 8.598 0
Fe 15.763 10.031 1.433
Fe 0 11.464 0
Fe 1.433 12.897 1.433
Fe 2.866 11.464 0
Fe 4.299 12.897 1.433
Fe 5.732 11.464 0
Fe 7.165 12.897 1.433
Fe 8.598 11.464 0
Fe 10.031 12.897 1.433
Fe 11.464 11.464 0
Fe 12.897 12.897 1.433
Fe 14.33 11.464 0
Fe 15.763 12.897 1.433
Fe 0 14.33 0
Fe 1.433 15.763 1.433
Fe 2.866 14.33 0
Fe 4.299 15.763 1.433
Fe 5.732 14.33 0
Fe 7.165 15.763 1.433
Fe 8.598 14.33 0
Fe 10.031 15.763 1.433
Fe 11.464 14.33 0
Fe 12.897 15.763 1.433
Fe 14.33 14.33 0
Fe 15.763 15.763 1.433
Fe 0 0 2.866
Fe 1.36689 1.32359 4.39405
Fe 2.866 0 2.866
Fe 4.29425 1.51001 4.22528
Fe 5.732 0 2.866
Fe 7.17337 1.55822 4.37226
Fe 8.598 0 2.866
Fe 9.98062 1.40014 4.19502
Fe 11.464 0 2.866
Fe 12.7861 1.46381 4.27312
Fe 14.33 0 2.866
Fe 15.7491 1.44838 4.23238
Fe 0 2.866 2.866
Fe 1.39724 4.29622 4.38136
Fe 2.866 2.866 2.866
Fe 4.23928 4.39546 4.25791
Fe 5.732 2.866 2.866
Fe 7.2481 4.3507 4.26241
Fe 8.598 2.866 2.866
Fe 10.0965 4.23897 4.18857
Fe 11.464 2.866 2.866
Fe 12.9634 4.37631 4.29088
Fe 14.33 2.866 2.866
Fe 15.7892 4.27095 4.3996
Fe 0 5.732 2.866
Fe 1.55403 7.03774 4.23205
Fe 2.866 5.732 2.866
Fe 4.39302 7.16273 4.26746
Fe 5.732 5.732 2.866
Fe 7.11999 7.21623 4.17428
Fe 8.598 5.732 2.866
Fe 9.93792 7.16547 4.36634
Fe 11.464 5.732 2.866
Fe 12.8942 7.21781 4.23999
Fe 14.33 5.732 2.866
Fe 15.755 7.15514 4.22016
Fe 0 8.598 2.866
Fe 1.60507 10.0889 4.37172
Fe 2.866 8.598 2.866
Fe 4.32223 9.91769 4.23674
Fe 5.732 8.598 2.866
Fe 7.21668 10.0815 4.40489
Fe 8.598 8.598 2.866
Fe 10.0421 10.1344 4.28462
Fe 11.464 8.598 2.866
Fe 12.9507 10.1387 4.33536
Fe 14.33 8.598 2.866
Fe 15.8204 9.99694 4.3207
Fe 0 11.464 2.866
Fe 1.36712 12.998 4.4297
Fe 2.866 11.464 2.866
Fe 4.16394 12.7891 4.21873
Fe 5.732 11.464 2.866
Fe 7.21953 12.9837 4.3147
Fe 8.598 11.464 2.866
Fe 9.97433 12.8566 4.29015
Fe 11.464 11.464 2.866
Fe 12.8455 12.889 4.35631
Fe 14.33 11.464 2.866
Fe 15.7906 12.96 4.3341
Fe 0 14.33 2.866
Fe 1.36077 15.7982 4.33377
Fe 2.866 14.33 2.866
Fe 4.24733 15.6746 4.3382
Fe 5.732 14.33 2.866
Fe 7.21546 15.7695 4.25295
Fe 8.598 14.33 2.866
Fe 10.0553 15.8635 4.25991
Fe 11.464 14.33 2.866
Fe 12.9535 15.7591 4.21698
Fe 14.33 14.33 2.866
Fe 15.7272 15.6771 4.22413
Fe -0.0917092 -0.0459574 5.7142
Fe 1.47807 1.34771 7.13157
Fe 2.97852 -0.0325038 5.80284
Fe 4.37333 1.52607 7.19468
Fe 5.71635 -0.0655014 5.66487
Fe 7.1935 1.32335 7.16779
Fe 8.54754 -0.00571132 5.71839
Fe 10.0385 1.30986 7.17304
Fe 11.5089 0.120049 5.69416
Fe 13.0253 1.52695 7.17109
Fe 14.2918 -0.0841784 5.66988
Fe 15.7077 1.42253 7.11136
Fe 0.0417879 2.77845 5.85075
Fe 1.34468 4.35685 7.25967
Fe 2.92206 2.80959 5.6567
Fe 4.24613 4.27231 7.22729
Fe 5.81615 3.00891 5.68669
Fe 7.24247 4.24744 7.18123
Fe 8.76793 2.76526 5.80572
Fe 9.94082 4.24169 7.24247
Fe 11.4634 2.91713 5.80217
Fe 12.9044 4.23012 7.13515
Fe 14.2992 2.82726 5.63884
Fe 15.8296 4.28993 7.26096
Fe 0.116296 5.66532 5.68426
Fe 1.39162 7.29825 7.20476
Fe 2.98836 5.6692 5.81594
Fe 4.46724 7.22646 7.25865
Fe 5.72689 5.7712 5.65047
Fe 7.18439 7.07009 7.07888
Fe 8.52507 5.69142 5.60012
Fe 10.0193 6.99684 7.21529
Fe 11.3382 5.61687 5.63969
Fe 12.7531 7.0562 6.99843
Fe 14.428 5.72044 5.68419
Fe 15.8431 7.13675 7.07244
Fe 0.131041 8.50755 5.57403
Fe 1.39428 10.1056 7.13208
Fe 2.97687 8.43098 5.79003
Fe 4.26315 9.92355 7.286
Fe 5.74779 8.7081 5.72325
Fe 7.16017 10.0745 7.1571
Fe 8.54771 8.49685 5.73055
Fe 9.91415 9.9487 7.00134
Fe 11.3984 8.58605 5.59763
Fe 12.9668 10.0967 7.18136
Fe 14.316 8.5342 5.80037
Fe 15.7195 9.97616 7.19814
Fe -0.00205103 11.4774 5.69315
Fe 1.5513 12.8221 7.22934
Fe 3.05477 11.3514 5.8504
Fe 4.33951 13.0111 7.34546
Fe 5.70415 11.5239 5.75864
Fe 7.16347 12.9663 7.22117
Fe 8.57908 11.569 5.69709
Fe 9.9751 12.9669 7.12019
Fe 11.5412 11.5383 5.73947
Fe 12.9103 12.9324 7.2523
Fe 14.4196 11.5306 5.8359
Fe 15.8295 12.8362 7.12473
Fe -0.0807976 14.3613 5.82405
Fe 1.39336 15.7206 7.09271
Fe 2.86797 14.2109 5.83972
Fe 4.16079 15.8269 7.23864
Fe 5.71893 14.3144 5.6463
Fe 7.15093 15.799 7.27961
Fe 8.58529 14.443 5.70025
Fe 10.0919 15.7881 7.14762
Fe 11.3631 14.3345 5.65264
Fe 12.7672 15.8072 7.13251
Fe 14.2091 14.3267 5.76328
Fe 15.792 15.7397 7.11324
Fe -0.0564014 -0.0913431 8.5296
Fe 1.53708 1.40164 9.99892
Fe 2.78647 0.151674 8.62502
Fe 4.29973 1.47466 10.0928
Fe 5.64846 0.0182855 8.55153
Fe 7.05945 1.46108 9.9543
Fe 8.6711 0.0372408 8.76904
Fe 10.1081 1.48436 10.121
Fe 11.4265 0.0523958 8.57195
Fe 12.892 1.33098 10.0785
Fe 14.2461 0.0459455 8.50537
Fe 15.7877 1.34663 9.99833
Fe 0.0628723 2.6648 8.61995
Fe 1.39941 4.27547 9.98287
Fe 2.84684 2.98466 8.57899
Fe 4.21919 4.4168 10.0679
Fe 5.6899 2.82004 8.56461
Fe 7.00967 4.26769 9.97266
Fe 8.69729 2.76237 8.63365
Fe 9.95432 4.24586 10.0329
Fe 11.5216 2.73235 8.63717
Fe 12.92 4.30394 9.93116
Fe 14.4542 2.9368 8.65085
Fe 15.8405 4.31033 9.94838
Fe 0.0476699 5.83203 8.56505
Fe 1.27235 7.26233 10.2055
Fe 2.71706 5.88835 8.50994
Fe 4.13564 7.13932 10.0099
Fe 5.63542 5.76217 8.57935
Fe 7.00924 7.15446 10.0337
Fe 8.50674 5.65401 8.70551
Fe 9.97023 6.99631 10.0923
Fe 11.4507 5.57514 8.60808
Fe 12.9958 7.17143 10.0147
Fe 14.3333 5.85702 8.46888
Fe 15.8457 7.12062 10.0503
Fe -0.0896444 8.65341 8.47828
Fe 1.36635 9.95121 9.98789
Fe 2.7584 8.59917 8.63245
Fe 4.18932 10.04 10.1042
Fe 5.76194 8.69177 8.68293
Fe 7.25848 10.0231 10.0025
Fe 8.59064 8.53493 8.58171
Fe 10.1636 9.96911 10.0528
Fe 11.5293 8.52502 8.45835
Fe 12.8704 10.0948 10.0039
Fe 14.2808 8.57782 8.54249
Fe 15.8121 9.93298 10.0397
Fe -0.0285386 11.3657 8.5347
Fe 1.48852 12.8153 9.94283
Fe 2.92812 11.3925 8.62794
Fe 4.33365 12.9477 10.0692
Fe 5.76113 11.3893 8.65387
Fe 7.05913 12.8725 9.97638
Fe 8.64225 11.4664 8.61583
Fe 9.97911 12.8913 10.0499
Fe 11.3305 11.3466 8.42873
Fe 12.8286 12.9256 9.95634
Fe 14.3814 11.4618 8.65449
Fe 15.815 12.8423 9.90559
Fe 0.0004106 14.1886 8.54215
Fe 1.42013 15.8123 10.0539
Fe 2.77455 14.4678 8.69015
Fe 4.18339 15.9258 10.0416
Fe 5.69166 14.4695 8.58236
Fe 7.05048 15.8655 10.0765
Fe 8.65849 14.3819 8.6511
Fe 10.0654 15.6683 9.97655
Fe 11.4891 14.223 8.58143
Fe 12.968 15.701 9.97387
Fe 14.4463 14.3726 8.52537
Fe 15.8416 15.7616 9.954
Fe 0.0627926 0.0814242 11.3722
Fe 1.53434 1.55939 12.9602
Fe 2.87891 0.0673491 11.4727
Fe 4.19355 1.53869 12.9374
Fe 5.64797 -0.0628987 11.5375
Fe 7.26201 1.31393 12.7994
Fe 8.6641 0.027321 11.4
Fe 9.96772 1.63417 12.7758
Fe 11.3845 -0.121314 11.3511
Fe 12.9765 1.3077 12.7786
Fe 14.4423 -0.131473 11.3973
Fe 15.6451 1.35962 13.0138
Fe -0.117959 2.75532 11.3722
Fe 1.29664 4.37543 12.7617
Fe 2.8337 2.94145 11.2866
Fe 4.2808 4.23107 12.9996
Fe 5.70696 2.81342 11.514
Fe 7.30717 4.27942 13.0333
Fe 8.53559 2.97265 11.306
Fe 9.97222 4.46549 12.8242
Fe 11.538 2.92325 11.3327
Fe 12.8368 4.35807 13.0152
Fe 14.3425 2.95252 11.2911
Fe 15.6039 4.43103 13.0023
Fe -0.0708397 5.59812 11.3085
Fe 1.35745 7.1126 13.0948
Fe 2.86046 5.80025 11.4995
Fe 4.36932 7.36382 12.9889
Fe 5.721 5.72849 11.5089
Fe 7.30779 7.08243 12.888
Fe 8.52244 5.75443 11.3849
Fe 10.1561 7.16411 13.1168
Fe 11.5594 5.64215 11.4015
Fe 12.946 7.25314 12.9006
Fe 14.3367 5.79049 11.3308
Fe 15.8847 7.27481 12.8184
Fe -0.0044853 8.7594 11.5124
Fe 1.44153 10.1857 13.0837
Fe 2.74581 8.64822 11.4989
Fe 4.26127 10.0976 13.1548
Fe 5.68552 8.74647 11.3644
Fe 7.3033 10.1425 13.0504
Fe 8.61238 8.56843 11.3864
Fe 10.1299 10.1685 13.054
Fe 11.4459 8.49743 11.277
Fe 12.9383 9.90269 12.9578
Fe 14.3305 8.64025 11.289
Fe 15.6162 9.9419 12.8734
Fe -0.0562659 11.5198 11.3253
Fe 1.53513 12.9238 12.9698
Fe 2.85053 11.428 11.3318
Fe 4.4366 12.8283 12.8028
Fe 5.79287 11.3828 11.4871
Fe 7.31666 12.78 13.0879
Fe 8.75275 11.4659 11.4248
Fe 10.1571 13.0098 13.1651
Fe 11.5583 11.5377 11.433
Fe 12.81 12.9397 12.8371
Fe 14.3312 11.4404 11.3146
Fe 15.6861 12.8224 12.9049
Fe 0.0266201 14.2914 11.3728
Fe 1.43319 15.7786 13.0668
Fe 2.78181 14.3683 11.3402
Fe 4.22742 15.695 13.124
Fe 5.67927 14.4123 11.4259
Fe 7.14113 15.6848 13.094
Fe 8.47834 14.3374 11.4652
Fe 10.0387 15.8272 12.8504
Fe 11.4017 14.3209 11.452
Fe 12.9414 15.7922 12.8539
Fe 14.2966 14.1977 11.4198
Fe 15.8029 15.6143 12.8187
O 10.1806 6.77425 39.56
O 14.1894 12.2834 24.4411
O 8.54343 10.7361 33.8417
O 13.2119 2.48899 27.9574
O 6.59642 9.85379 24.474
O 12.3919 4.57678 22.2395
O 13.7127 13.266 37.7572
O 7.87418 14.1109 38.5942
O 3.46919 11.2555 33.3636
O 14.9465 9.20785 31.899
O 4.53729 1.32135 31.3999
O 4.81453 11.3675 20.5227
O 9.09827 2.99031 36.2568
O 9.94663 15.2792 29.304
O 4.31614 10.3051 39.5515
O 2.8867 2.49911 39.2282
O 4.26617 6.56117 35.2351
O 7.2629 2.28648 25.0814
O 2.21605 6.50571 29.8617
O 2.68393 1.66323 20.0742
O 2.91105 12.5083 25.6251
O 9.41672 7.14642 29.3046
O 10.6538 15.8948 20.5183
O 14.2012 2.22678 34.6002
O 9.77991 9.11624 20.3949
O 1.89569 7.50614 23.5464
O 2.71671 15.178 36.3446
O 14.7221 15.683 30.8805
O 15.7443 6.48171 39.7912
O 1.95662 2.15316 26.2952
O 6.82079 5.58697 21.7122
391
 Atoms. Timestep: 300
Fe 0 0 0
Fe 1.433 1.433 1.433
Fe 2.866 0 0
Fe 4.299 1.433 1.433
Fe 5.732 0 0
Fe 7.165 1.433 1.433
Fe 8.598 0 0
Fe 10.031 1.433 1.433
Fe 11.464 0 0
Fe 12.897 1.433 1.433
Fe 14.33 0 0
Fe 15.763 1.433 1.433
Fe 0 2.866 0
Fe 1.433 4.299 1.433
Fe 2.866 2.866 0
Fe 4.299 4.299 1.433
Fe 5.732 2.866 0
Fe 7.165 4.299 1.433
Fe 8.598 2.866 0
Fe 10.031 4.299 1.433
Fe 11.464 2.866 0
Fe 12.897 4.299 1.433
Fe 14.33 2.866 0
Fe 15.763 4.299 1.433
Fe 0 5.732 0
Fe 1.433 7.165 1.433
Fe 2.866 5.732 0
Fe 4.299 7.165 1.433
Fe 5.732 5.732 0
Fe 7.165 7.165 1.433
Fe 8.598 5.732 0
Fe 10.031 7.165 1.433
Fe 11.464 5.732 0
Fe 12.897 7.165 1.433
Fe 14.33 5.732 0
Fe 15.763 7.165 1.433
Fe 0 8.598 0
Fe 1.433 10.031 1.433
Fe 2.866 8.598 0
Fe 4.299 10.031 1.433
Fe 5.732 8.598 0
Fe 7.165 10.031 1.433
Fe 8.598 8.598 0
Fe 10.031 10.031 1.433
Fe 11.464 8.598 0
Fe 12.897 10.031 1.433
Fe 14.33 8.598 0
Fe 15.763 10.031 1.433
Fe 0 11.464 0
Fe 1.433 12.897 1.433
Fe 2.866 11.464 0
Fe 4.299 12.897 1.433
Fe 5.732 11.464 0
Fe 7.165 12.897 1.433
Fe 8.598 11.464 0
Fe 10.031 12.897 1.433
Fe 11.464 11.464 0
Fe 12.897 12.897 1.433
Fe 14.33 11.464 0
Fe 15.763 12.897 1.433
Fe 0 14.33 0
Fe 1.433 15.763 1.433
Fe 2.866 14.33 0
Fe 4.299 15.763 1.433
Fe 5.732 14.33 0
Fe 7.165 15.763 1.433
Fe 8.598 14.33 0
Fe 10.031 15.763 1.433
Fe 11.464 14.33 0
Fe 12.897 15.763 1.433
Fe 14.33 14.33 0
Fe 15.763 15.763 1.433
Fe 0 0 2.866
Fe 1.4467 1.40117 4.31562
Fe 2.866 0 2.866
Fe 4.35125 1.42439 4.31632
Fe 5.732 0 2.866
Fe 7.14914 1.48294 4.30413
Fe 8.598 0 2.866
Fe 10.0421 1.46428 4.2881
Fe 11.464 0 2.866
Fe 12.8733 1.48804 4.24386
Fe 14.33 0 2.866
Fe 15.7256 1.401 4.31298
Fe 0 2.866 2.866
Fe 1.47958 4.15813 4.32228
Fe 2.866 2.866 2.866
Fe 4.30418 4.31167 4.24764
Fe 5.732 2.866 2.866
Fe 7.23337 4.2647 4.26128
Fe 8.598 2.866 2.866
Fe 10.0094 4.21026 4.26133
Fe 11.464 2.866 2.866
Fe 12.912 4.33463 4.27193
Fe 14.33 2.866 2.866
Fe 15.8368 4.22462 4.3337
Fe 0 5.732 2.866
Fe 1.58678 7.11193 4.29791
Fe 2.866 5.732 2.866
Fe 4.3174 7.17183 4.26978
Fe 5.732 5.732 2.866
Fe 7.13761 7.2459 4.22387
Fe 8.598 5.732 2.866
Fe 9.99508 7.14783 4.22885
Fe 11.464 5.732 2.866
Fe 12.8756 7.1657 4.28865
Fe 14.33 5.732 2.866
Fe 15.8104 7.14199 4.27178
Fe 0 8.598 2.866
Fe 1.55918 10.0541 4.35548
Fe 2.866 8.598 2.866
Fe 4.34751 10.0078 4.29583
Fe 5.732 8.598 2.866
Fe 7.21562 10.087 4.30622
Fe 8.598 8.598 2.866
Fe 10.0098 10.0489 4.30764
Fe 11.464 8.598 2.866
Fe 12.9956 10.041 4.37419
Fe 14.33 8.598 2.866
Fe 15.7641 10.0242 4.37373
Fe 0 11.464 2.866
Fe 1.46576 12.919 4.40302
Fe 2.866 11.464 2.866
Fe 4.23593 12.8338 4.32237
Fe 5.732 11.464 2.866
Fe 7.11129 12.9056 4.26248
Fe 8.598 11.464 2.866
Fe 10.0339 12.9639 4.23844
Fe 11.464 11.464 2.866
Fe 12.9438 12.95 4.27345
Fe 14.33 11.464 2.866
Fe 15.6988 12.9094 4.29978
Fe 0 14.33 2.866
Fe 1.45792 15.6974 4.35545
Fe 2.866 14.33 2.866
Fe 4.19968 15.7006 4.30274
Fe 5.732 14.33 2.866
Fe 7.15674 15.8347 4.25551
Fe 8.598 14.33 2.866
Fe 10.0752 15.8076 4.28984
Fe 11.464 14.33 2.866
Fe 12.8066 15.7419 4.25724
Fe 14.33 14.33 2.866
Fe 15.7485 15.7378 4.28035
Fe 17.0268 17.1627 5.72199
Fe 1.49249 1.36832 7.14801
Fe 2.95692 17.2014 5.71318
Fe 4.31719 1.47226 7.08755
Fe 5.68908 17.1875 5.67145
Fe 7.17919 1.41828 7.18148
Fe 8.60276 17.1291 5.73514
Fe 10.0928 1.34492 7.16182
Fe 11.4668 0.0910328 5.67782
Fe 12.9366 1.48301 7.15256
Fe 14.3285 17.1839 5.64929
Fe 15.7339 1.38221 7.08063
Fe 0.0182999 2.7983 5.79649
Fe 1.42618 4.23872 7.16974
Fe 2.85554 2.86799 5.76056
Fe 4.32887 4.35895 7.18223
Fe 5.77259 2.98864 5.72025
Fe 7.15786 4.235 7.16497
Fe 8.71875 2.85649 5.72314
Fe 10.0068 4.23748 7.19026
Fe 11.3939 2.82542 5.73656
Fe 12.9734 4.3241 7.15842
Fe 14.3925 2.85274 5.67716
Fe 15.8127 4.27734 7.14819
Fe 0.0681099 5.77691 5.76029
Fe 1.42854 7.25756 7.08357
Fe 2.9228 5.76845 5.86267
Fe 4.41102 7.21393 7.21895
Fe 5.74637 5.70922 5.75303
Fe 7.14395 7.1102 7.18201
Fe 8.59634 5.58479 5.68051
Fe 9.93941 6.98071 7.20622
Fe 11.3676 5.62038 5.65812
Fe 12.7844 6.99709 6.97668
Fe 14.3739 5.71241 5.73875
Fe 15.8533 7.13796 7.03276
Fe 0.119904 8.56219 5.60025
Fe 1.42415 10.0062 7.06419
Fe 2.93292 8.43724 5.77442
Fe 4.34895 9.96357 7.28468
Fe 5.79007 8.64374 5.77609
Fe 7.21153 10.0555 7.13429
Fe 8.52192 8.56309 5.70818
Fe 9.95252 9.96696 7.00268
Fe 11.4577 8.6423 5.67253
Fe 12.8536 10.0584 7.05075
Fe 14.3152 8.57417 5.69112
Fe 15.8119 9.96497 7.02403
Fe 0.0516282 11.3995 5.73529
Fe 1.48892 12.8062 7.20866
Fe 3.05238 11.4114 5.82349
Fe 4.37716 12.9317 7.36034
Fe 5.6605 11.5561 5.77985
Fe 7.15886 13.0136 7.2127
Fe 8.56813 11.5443 5.81284
Fe 9.95551 12.9181 7.11952
Fe 11.4389 11.4636 5.81736
Fe 12.9033 12.9234 7.24028
Fe 14.4043 11.4924 5.74153
Fe 15.7989 12.8449 7.13011
Fe 17.156 14.2937 5.77071
Fe 1.42886 15.7516 7.17719
Fe 2.89197 14.2716 5.77361
Fe 4.22389 15.8098 7.2136
Fe 5.66323 14.3289 5.76388
Fe 7.2161 15.7799 7.20277
Fe 8.59237 14.4931 5.78214
Fe 10.0008 15.81 7.12317
Fe 11.4208 14.4072 5.64217
Fe 12.8159 15.7561 7.13951
Fe 14.2475 14.3239 5.7696
Fe 15.6541 15.7748 7.09225
Fe 17.2212 17.1327 8.47775
Fe 1.43566 1.45093 10.0073
Fe 2.80979 0.115772 8.53522
Fe 4.33241 1.53483 10.0224
Fe 5.59698 0.0533807 8.60207
Fe 7.08118 1.41149 10.048
Fe 8.6455 -0.0118935 8.72612
Fe 10.0465 1.4259 10.0851
Fe 11.508 -0.0202604 8.6168
Fe 13.0437 1.296 10.0563
Fe 14.3138 -0.0338121 8.53701
Fe 15.679 1.3125 9.94964
Fe 0.0909647 2.66899 8.59221
Fe 1.36477 4.35162 9.97846
Fe 2.83225 2.90938 8.52209
Fe 4.26358 4.38229 10.0279
Fe 5.71498 2.94578 8.59658
Fe 6.93885 4.23652 9.99495
Fe 8.58588 2.6993 8.62111
Fe 10.0383 4.28119 10.0354
Fe 11.5295 2.80836 8.54194
Fe 12.9916 4.33668 9.87604
Fe 14.3831 2.85832 8.60824
Fe 15.8127 4.32214 9.88409
Fe -0.00291158 5.86809 8.58474
Fe 1.26607 7.19669 10.1754
Fe 2.75043 5.88604 8.59403
Fe 4.17636 7.28386 10.1099
Fe 5.68216 5.69508 8.55392
Fe 7.00011 7.15064 9.98785
Fe 8.45127 5.69699 8.6345
Fe 10.0765 7.03606 10.0062
Fe 11.4746 5.61409 8.60408
Fe 12.8702 7.12407 9.88332
Fe 14.3316 5.80532 8.44532
Fe 15.822 7.27343 9.92234
Fe 17.0957 8.57398 8.52977
Fe 1.33144 10.0649 9.99585
Fe 2.77872 8.58735 8.64716
Fe 4.23278 9.99784 10.092
Fe 5.72991 8.59864 8.64052
Fe 7.33779 10.0733 10.1086
Fe 8.64476 8.46768 8.57967
Fe 10.0884 9.95962 9.98773
Fe 11.4177 8.45241 8.46617
Fe 12.8624 10.0553 9.95059
Fe 14.3274 8.48421 8.56111
Fe 15.7466 9.92015 9.94574
Fe 0.0340989 11.3865 8.51755
Fe 1.45148 12.7923 9.94052
Fe 2.94108 11.4253 8.63661
Fe 4.33364 12.9515 10.0045
Fe 5.65456 11.4436 8.63641
Fe 7.12567 12.9446 10.0771
Fe 8.67506 11.4326 8.5609
Fe 10.0279 12.8625 10.0513
Fe 11.3537 11.4223 8.46567
Fe 12.8808 12.8663 9.8608
Fe 14.3389 11.4923 8.63671
Fe 15.7526 12.9047 9.95575
Fe 0.10836 14.2693 8.57792
Fe 1.31375 15.8356 10.0072
Fe 2.79216 14.4281 8.65037
Fe 4.21544 15.8891 10.0614
Fe 5.6623 14.4715 8.6628
Fe 7.11434 15.8585 10.0971
Fe 8.51996 14.4011 8.63359
Fe 10.0739 15.6879 10.0057
Fe 11.467 14.2913 8.54765
Fe 12.9219 15.7028 9.92805
Fe 14.3635 14.3418 8.52005
Fe 15.7969 15.6579 9.96789
Fe 0.0939663 0.00807116 11.4243
Fe 1.46102 1.60441 12.9732
Fe 2.82437 0.00576098 11.5316
Fe 4.21336 1.50408 13.0297
Fe 5.64831 17.1927 11.528
Fe 7.23269 1.335 12.8126
Fe 8.54022 17.1503 11.2706
Fe 10.0567 1.70074 12.797
Fe 11.485 17.124 11.2589
Fe 12.9046 1.3566 12.7349
Fe 14.4421 17.0678 11.215
Fe 15.6727 1.36792 13.0108
Fe 17.0971 2.80615 11.3764
Fe 1.2621 4.31367 12.775
Fe 2.79025 2.99586 11.2948
Fe 4.24173 4.29885 13.0363
Fe 5.75232 2.90725 11.4274
Fe 7.25128 4.21518 13.0617
Fe 8.44649 2.94048 11.2298
Fe 10.0074 4.45806 12.8302
Fe 11.5727 2.95179 11.3716
Fe 12.8682 4.33544 13.0205
Fe 14.3434 2.92099 11.3103
Fe 15.5896 4.41714 12.9901
Fe 17.1532 5.65642 11.3346
Fe 1.33584 7.15132 13.1105
Fe 2.80049 5.84703 11.4741
Fe 4.37885 7.3692 13.0021
Fe 5.63894 5.7294 11.49
Fe 7.27754 7.19241 12.9504
Fe 8.53117 5.71517 11.3136
Fe 10.18 7.20054 13.0826
Fe 11.5351 5.74039 11.2856
Fe 13.0075 7.22175 12.9038
Fe 14.327 5.72724 11.2936
Fe 15.8419 7.21379 12.8167
Fe 0.0509622 8.75633 11.4879
Fe 1.37838 10.2354 13.1218
Fe 2.78375 8.65632 11.5568
Fe 4.25883 10.1246 13.1901
Fe 5.71781 8.69259 11.4342
Fe 7.34804 10.0382 13.0687
Fe 8.67007 8.63625 11.4072
Fe 10.2152 10.1081 13.0471
Fe 11.4543 8.50652 11.2909
Fe 12.8748 9.95364 12.9224
Fe 14.3027 8.59626 11.1682
Fe 15.6335 10.0433 12.946
Fe 17.2336 11.4908 11.3502
Fe 1.54376 12.9146 12.947
Fe 2.79464 11.4553 11.3744
Fe 4.39829 12.8711 12.8355
Fe 5.86267 11.3908 11.3823
Fe 7.32275 12.8312 13.0986
Fe 8.73475 11.499 11.3695
Fe 10.1026 13.0358 13.2089
Fe 11.485 11.4402 11.3517
Fe 12.9005 12.8915 12.9435
Fe 14.2923 11.4628 11.2638
Fe 15.7045 12.7671 12.9144
Fe 0.0406696 14.2474 11.2689
Fe 1.41604 15.821 13.058
Fe 2.85845 14.373 11.3997
Fe 4.16182 15.6784 13.1642
Fe 5.70519 14.373 11.4012
Fe 7.15462 15.6937 13.1404
Fe 8.50354 14.304 11.399
Fe 10.0008 15.8247 12.9351
Fe 11.3726 14.3603 11.3155
Fe 12.9301 15.749 12.8625
Fe 14.3897 14.2101 11.2036
Fe 15.8535 15.6015 12.8328
O 10.0751 6.56158 39.4031
O 14.003 12.3461 24.6558
O 8.25079 10.6887 33.8591
O 13.2106 2.34203 27.8363
O 6.49807 9.78486 24.2214
O 12.7163 4.40329 22.0436
O 13.7146 13.3359 38.0335
O 7.60487 14.3088 38.7615
O 3.51425 11.2936 33.5574
O 15.2592 9.35677 31.8978
O 4.28364 1.14132 31.3274
O 4.84388 11.1541 20.6849
O 9.36264 3.16478 35.9528
O 9.94109 15.1421 29.5811
O 4.53455 10.052 39.7206
O 2.92442 2.29828 39.2266
O 3.94949 6.82386 35.19
O 7.06876 2.34997 25.1716
O 1.98227 6.4814 29.9115
O 2.54068 1.57781 19.8404
O 3.13593 12.2794 25.5815
O 9.58221 7.47293 28.9846
O 10.4708 16.1945 20.4321
O 14.4542 2.18873 34.3103
O 9.62451 8.85501 20.3122
O 2.15033 7.70724 23.6584
O 2.93222 15.2741 36.1086
O 14.4951 15.7304 30.6341
O 15.8618 6.29932 39.7474
O 2.22664 2.28513 26.1519
O 7.01979 5.52672 21.9462
391
 Atoms. Timestep: 400
Fe 0 0 0
Fe 1.433 1.433 1.433
Fe 2.866 0 0
Fe 4.299 1.433 1.433
Fe 5.732 0 0
Fe 7.165 1.433 1.433
Fe 8.598 0 0
Fe 10.031 1.433 1.433
Fe 11.464 0 0
Fe 12.897 1.433 1.433
Fe 14.33 0 0
Fe 15.763 1.433 1.433
Fe 0 2.866 0
Fe 1.433 4.299 1.433
Fe 2.866 2.866 0
Fe 4.299 4.299 1.433
Fe 5.732 2.866 0
Fe 7.165 4.299 1.433
Fe 8.598 2.866 0
Fe 10.031 4.299 1.433
Fe 11.464 2.866 0
Fe 12.897 4.299 1.433
Fe 14.33 2.866 0
Fe 15.763 4.299 1.433
Fe 0 5.732 0
Fe 1.433 7.165 1.433
Fe 2.866 5.732 0
Fe 4.299 7.165 1.433
Fe 5.732 5.732 0
Fe 7.165 7.165 1.433
Fe 8.598 5.732 0
Fe 10.031 7.165 1.433
Fe 11.464 5.732 0
Fe 12.897 7.165 1.433
Fe 14.33 5.732 0
Fe 15.763 7.165 1.433
Fe 0 8.598 0
Fe 1.433 10.031 1.433
Fe 2.866 8.598 0
Fe 4.299 10.031 1.433
Fe 5.732 8.598 0
Fe 7.165 10.031 1.433
Fe 8.598 8.598 0
Fe 10.031 10.031 1.433
Fe 11.464 8.598 0
Fe 12.897 10.031 1.433
Fe 14.33 8.598 0
Fe 15.763 10.031 1.433
Fe 0 11.464 0
Fe 1.433 12.897 1.433
Fe 2.866 11.464 0
Fe 4.299 12.897 1.433
Fe 5.732 11.464 0
Fe 7.165 12.897 1.433
Fe 8.598 11.464 0
Fe 10.031 12.897 1.433
Fe 11.464 11.464 0
Fe 12.897 12.897 1.433
Fe 14.33 11.464 0
Fe 15.763 12.897 1.433
Fe 0 14.33 0
Fe 1.433 15.763 1.433
Fe 2.866 14.33 0
Fe 4.299 15.763 1.433
Fe 5.732 14.33 0
Fe 7.165 15.763 1.433
Fe 8.598 14.33 0
Fe 10.031 15.763 1.433
Fe 11.464 14.33 0
Fe 12.897 15.763 1.433
Fe 14.33 14.33 0
Fe 15.763 15.763 1.433
Fe 0 0 2.866
Fe 1.52107 1.46976 4.22931
Fe 2.866 0 2.866
Fe 4.37036 1.36742 4.38545
Fe 5.732 0 2.866
Fe 7.15782 1.35664 4.24544
Fe 8.598 0 2.866
Fe 10.0785 1.4791 4.37221
Fe 11.464 0 2.866
Fe 12.998 1.4848 4.25067
Fe 14.33 0 2.866
Fe 15.7473 1.37802 4.3455
Fe 0 2.866 2.866
Fe 1.54646 4.14521 4.25872
Fe 2.866 2.866 2.866
Fe 4.36661 4.21565 4.29874
Fe 5.732 2.866 2.866
Fe 7.14469 4.19944 4.27034
Fe 8.598 2.866 2.866
Fe 9.94596 4.24668 4.32616
Fe 11.464 2.866 2.866
Fe 12.8481 4.24189 4.28827
Fe 14.33 2.866 2.866
Fe 15.8651 4.24569 4.22924
Fe 0 5.732 2.866
Fe 1.51416 7.20135 4.34079
Fe 2.866 5.732 2.866
Fe 4.26467 7.16364 4.31131
Fe 5.732 5.732 2.866
Fe 7.17749 7.17696 4.36152
Fe 8.598 5.732 2.866
Fe 10.0747 7.13132 4.15589
Fe 11.464 5.732 2.866
Fe 12.8662 7.08253 4.33443
Fe 14.33 5.732 2.866
Fe 15.8473 7.12783 4.33691
Fe 0 8.598 2.866
Fe 1.4617 9.99654 4.2813
Fe 2.866 8.598 2.866
Fe 4.36313 10.1067 4.38984
Fe 5.732 8.598 2.866
Fe 7.15974 10.0849 4.20249
Fe 8.598 8.598 2.866
Fe 9.98368 9.96183 4.31697
Fe 11.464 8.598 2.866
Fe 12.9459 9.95651 4.32837
Fe 14.33 8.598 2.866
Fe 15.7312 10.0545 4.32877
Fe 0 11.464 2.866
Fe 1.55684 12.7732 4.30426
Fe 2.866 11.464 2.866
Fe 4.37256 12.9477 4.41238
Fe 5.732 11.464 2.866
Fe 7.04022 12.8507 4.27254
Fe 8.598 11.464 2.866
Fe 10.0781 13.0298 4.2605
Fe 11.464 11.464 2.866
Fe 12.984 12.9481 4.22442
Fe 14.33 11.464 2.866
Fe 15.68 12.8396 4.2646
Fe 0 14.33 2.866
Fe 1.52059 15.6444 4.3624
Fe 2.866 14.33 2.866
Fe 4.24098 15.7645 4.25078
Fe 5.732 14.33 2.866
Fe 7.06979 15.8342 4.29946
Fe 8.598 14.33 2.866
Fe 10.0311 15.7368 4.29593
Fe 11.464 14.33 2.866
Fe 12.7382 15.7672 4.3224
Fe 14.33 14.33 2.866
Fe 15.7626 15.7871 4.3419
Fe 17.1247 17.1687 5.71065
Fe 1.45146 1.40428 7.10117
Fe 2.83033 17.2272 5.60932
Fe 4.27254 1.43077 7.01949
Fe 5.71567 17.238 5.74964
Fe 7.13844 1.50855 7.16306
Fe 8.64845 17.182 5.73309
Fe 10.0932 1.4265 7.17921
Fe 11.4424 -0.0115709 5.69363
Fe 12.8346 1.37787 7.10548
Fe 14.2762 17.262 5.6581
Fe 15.7678 1.3707 7.12442
Fe -0.00389752 2.83274 5.68004
Fe 1.50097 4.18777 7.07738
Fe 2.83673 2.93931 5.84472
Fe 4.36049 4.42125 7.1235
Fe 5.69538 2.86377 5.75834
Fe 7.10514 4.23995 7.14853
Fe 8.53823 2.90477 5.66351
Fe 10.0832 4.23033 7.16296
Fe 11.431 2.77686 5.65664
Fe 12.9918 4.35214 7.11883
Fe 14.4281 2.90036 5.7583
Fe 15.8131 4.25712 7.0332
Fe 0.0223737 5.81438 5.78053
Fe 1.4711 7.15218 7.03149
Fe 2.82775 5.80887 5.81465
Fe 4.26747 7.17329 7.17203
Fe 5.78756 5.68017 5.80773
Fe 7.11607 7.17857 7.25711
Fe 8.63901 5.58411 5.79479
Fe 9.89573 7.04143 7.08557
Fe 11.4361 5.66344 5.70399
Fe 12.8683 7.05339 7.03692
Fe 14.3143 5.69703 5.72016
Fe 15.7866 7.18424 7.01842
Fe 0.0390663 8.63815 5.66471
Fe 1.52847 9.87936 7.07476
Fe 2.9153 8.61002 5.73485
Fe 4.41331 10.0257 7.20347
Fe 5.797 8.5435 5.79612
Fe 7.22001 10.0275 7.18565
Fe 8.56164 8.60386 5.69115
Fe 10.0291 9.97532 7.12318
Fe 11.4761 8.6017 5.77598
Fe 12.7937 9.96014 7.02021
Fe 14.3328 8.5794 5.60429
Fe 15.8501 9.96892 6.92825
Fe 0.105316 11.3829 5.73635
Fe 1.42483 12.8349 7.13536
Fe 2.93682 11.4965 5.77966
Fe 4.33861 12.8592 7.26403
Fe 5.70666 11.5204 5.81005
Fe 7.12932 12.9932 7.20977
Fe 8.54993 11.5151 5.83629
Fe 9.97922 12.9221 7.14286
Fe 11.336 11.4496 5.76816
Fe 12.8678 12.8768 7.09595
Fe 14.3045 11.4476 5.64954
Fe 15.752 12.885 7.16387
Fe 17.2277 14.2255 5.69525
Fe 1.46798 15.7909 7.1955
Fe 2.91299 14.3589 5.73971
Fe 4.34247 15.7685 7.14941
Fe 5.64831 14.3902 5.88261
Fe 7.17209 15.8217 7.11463
Fe 8.56882 14.3999 5.78181
Fe 9.95682 15.8066 7.1652
Fe 11.5056 14.4012 5.72929
Fe 12.9046 15.7306 7.11894
Fe 14.3394 14.3289 5.72375
Fe 15.5855 15.7538 7.1186
Fe 17.2501 17.1941 8.48215
Fe 1.3328 1.48177 10.0448
Fe 2.88211 0.0130897 8.50939
Fe 4.28635 1.56366 9.96821
Fe 5.63962 0.0849124 8.64029
Fe 7.09741 1.34735 10.1057
Fe 8.57614 -0.0616414 8.54692
Fe 10.0157 1.38878 9.99622
Fe 11.5742 -0.0857072 8.61732
Fe 13.0878 1.38399 9.94794
Fe 14.4123 -0.143053 8.52435
Fe 15.6955 1.33379 9.90765
Fe 0.0225792 2.79465 8.53261
Fe 1.35347 4.41333 9.94293
Fe 2.86742 2.82586 8.50838
Fe 4.25557 4.34604 9.97172
Fe 5.71574 2.9896 8.58726
Fe 7.00723 4.28774 10.0224
Fe 8.47013 2.75876 8.57109
Fe 10.1163 4.28666 9.97341
Fe 11.5122 2.90325 8.50015
Fe 13.0337 4.32169 9.86982
Fe 14.2996 2.74706 8.48239
Fe 15.7572 4.31721 9.82821
Fe -0.0429753 5.81247 8.54366
Fe 1.36201 7.17113 10.0648
Fe 2.85779 5.80435 8.70515
Fe 4.29404 7.37077 10.1867
Fe 5.71091 5.68951 8.58543
Fe 7.08518 7.16804 10.0074
Fe 8.46584 5.67306 8.53855
Fe 10.1158 7.14398 9.90028
Fe 11.4667 5.69223 8.51077
Fe 12.7602 7.08893 9.74766
Fe 14.3862 5.71398 8.48292
Fe 15.7419 7.32835 9.85685
Fe 17.2085 8.52963 8.57165
Fe 1.3696 10.1299 9.98641
Fe 2.81061 8.59191 8.6471
Fe 4.31872 9.9859 10.0793
Fe 5.73462 8.53459 8.60322
Fe 7.32285 10.0762 10.1174
Fe 8.64847 8.47579 8.59139
Fe 9.9926 9.96663 9.87808
Fe 11.3257 8.46099 8.47974
Fe 12.83 9.94428 9.82196
Fe 14.3153 8.47156 8.42747
Fe 15.6904 10.0445 9.84293
Fe 0.0460209 11.4368 8.51936
Fe 1.431 12.8535 9.97305
Fe 2.88995 11.4527 8.60555
Fe 4.28953 12.918 9.99494
Fe 5.68275 11.4952 8.62628
Fe 7.23574 12.9785 10.1216
Fe 8.62373 11.4291 8.52381
Fe 10.0793 12.8707 9.97267
Fe 11.4389 11.5041 8.56927
Fe 12.8942 12.8165 9.84803
Fe 14.311 11.4312 8.47774
Fe 15.7477 12.8899 9.97392
Fe 0.121194 14.3854 8.5554
Fe 1.31538 15.8367 9.9703
Fe 2.86778 14.3251 8.58524
Fe 4.25456 15.8116 10.0848
Fe 5.67826 14.4363 8.72987
Fe 7.15073 15.7886 10.0709
Fe 8.43099 14.3734 8.61773
Fe 10.0207 15.7498 10.0151
Fe 11.3728 14.3951 8.48358
Fe 12.8659 15.6797 9.90192
Fe 14.2637 14.2852 8.50333
Fe 15.7745 15.611 9.93527
Fe 0.0261115 -0.0644577 11.4899
Fe 1.33348 1.59507 12.9562
Fe 2.7855 -0.0188306 11.538
Fe 4.27209 1.46354 13.0708
Fe 5.63595 17.2485 11.5187
Fe 7.18188 1.41082 12.8763
Fe 8.47167 17.0877 11.2824
Fe 10.1309 1.65176 12.799
Fe 11.5735 17.2256 11.2604
Fe 12.836 1.43177 12.7271
Fe 14.4066 17.0712 11.1709
Fe 15.7314 1.38459 12.911
Fe 17.1034 2.89342 11.3845
Fe 1.27374 4.25759 12.8648
Fe 2.79157 2.99304 11.3883
Fe 4.18417 4.39815 13.0146
Fe 5.70857 2.99315 11.3994
Fe 7.13244 4.1876 13.0135
Fe 8.44698 2.87691 11.2476
Fe 10.0656 4.39498 12.8297
Fe 11.5946 2.96364 11.3617
Fe 12.912 4.31137 12.9451
Fe 14.3635 2.85989 11.4037
Fe 15.6488 4.33887 12.9136
Fe 17.138 5.79996 11.4267
Fe 1.33736 7.22045 13.0486
Fe 2.75723 5.85592 11.4578
Fe 4.34301 7.28554 13.0082
Fe 5.59765 5.76306 11.4799
Fe 7.20691 7.30194 12.9866
Fe 8.53758 5.71328 11.2971
Fe 10.1563 7.22855 12.9176
Fe 11.5048 5.84297 11.2651
Fe 13.0597 7.14455 12.8606
Fe 14.3329 5.69072 11.2646
Fe 15.7238 7.14206 12.7954
Fe 0.0611964 8.69425 11.4578
Fe 1.3027 10.2169 13.1118
Fe 2.82113 8.69719 11.6211
Fe 4.2888 10.1591 13.0952
Fe 5.80793 8.61601 11.5656
Fe 7.35985 9.92067 13.0207
Fe 8.74346 8.63648 11.4558
Fe 10.2438 10.0026 12.9649
Fe 11.4955 8.57184 11.3722
Fe 12.8381 10.0486 12.8145
Fe 14.268 8.53939 11.1903
Fe 15.6853 10.1487 12.9673
Fe 17.2571 11.4403 11.4236
Fe 1.49474 12.9409 12.8931
Fe 2.8201 11.488 11.4805
Fe 4.32844 12.9195 12.891
Fe 5.86415 11.4464 11.3416
Fe 7.25259 12.9185 13.0149
Fe 8.68649 11.53 11.4166
Fe 10.0333 13.0055 13.0973
Fe 11.3933 11.3762 11.3034
Fe 13.005 12.8396 12.9918
Fe 14.263 11.4538 11.2905
Fe 15.7724 12.7653 12.8785
Fe 0.0889714 14.2115 11.2725
Fe 1.37585 15.819 12.9804
Fe 2.92022 14.3658 11.4703
Fe 4.15534 15.696 13.1152
Fe 5.75202 14.3352 11.4591
Fe 7.16346 15.7353 13.0807
Fe 8.61612 14.2989 11.3871
Fe 9.96673 15.8386 12.9878
Fe 11.4359 14.3256 11.2484
Fe 12.932 15.6699 12.8143
Fe 14.4101 14.2744 11.0989
Fe 15.8582 15.6262 12.838
O 9.95362 6.3208 39.2417
O 13.7907 12.4156 24.8964
O 7.92879 10.6352 33.8741
O 13.2118 2.18298 27.6906
O 6.40109 9.70908 23.9496
O 13.1066 4.20663 21.8116
O 13.7222 13.417 38.3614
O 7.30664 14.5456 38.9697
O 3.55931 11.3441 33.7678
O 15.6096 9.52833 31.8991
O 3.99738 0.929413 31.2462
O 4.86454 10.927 20.8346
O 9.66423 3.35787 35.5977
O 9.91866 14.9787 29.8977
O 4.77784 9.75914 39.9414
O 2.96847 2.06518 39.2438
O 3.58417 7.11543 35.139
O 6.85068 2.41063 25.2808
O 1.7132 6.45456 29.9648
O 2.36858 1.47142 19.5445
O 3.38924 12.0369 25.5479
O 9.77217 7.84613 28.6181
O 10.2614 16.533 20.3146
O 14.7487 2.1503 33.9828
O 9.46289 8.56221 20.191
O 2.42105 7.93082 23.7816
O 3.17061 15.3879 35.8379
O 14.2473 15.7756 30.3545
O 15.995 6.09417 39.71
O 2.52591 2.42743 25.9854
O 7.24674 5.44949 22.2032
391
 Atoms. Timestep: 500
Fe 0 0 0
Fe 1.433 1.433 1.433
Fe 2.866 0 0
Fe 4.299 1.433 1.433
Fe 5.732 0 0
Fe 7.165 1.433 1.433
Fe 8.598 0 0
Fe 10.031 1.433 1.433
Fe 11.464 0 0
Fe 12.897 1.433 1.433
Fe 14.33 0 0
Fe 15.763 1.433 1.433
Fe 0 2.866 0
Fe 1.433 4.299 1.433
Fe 2.866 2.866 0
Fe 4.299 4.299 1.433
Fe 5.732 2.866 0
Fe 7.165 4.299 1.433
Fe 8.598 2.866 0
Fe 10.031 4.299 1.433
Fe 11.464 2.866 0
Fe 12.897 4.299 1.433
Fe 14.33 2.866 0
Fe 15.763 4.299 1.433
Fe 0 5.732 0
Fe 1.433 7.165 1.433
Fe 2.866 5.732 0
Fe 4.299 7.165 1.433
Fe 5.732 5.732 0
Fe 7.165 7.165 1.433
Fe 8.598 5.732 0
Fe 10.031 7.165 1.433
Fe 11.464 5.732 0
Fe 12.897 7.165 1.433
Fe 14.33 5.732 0
Fe 15.763 7.165 1.433
Fe 0 8.598 0
Fe 1.433 10.031 1.433
Fe 2.866 8.598 0
Fe 4.299 10.031 1.433
Fe 5.732 8.598 0
Fe 7.165 10.031 1.433
Fe 8.598 8.598 0
Fe 10.031 10.031 1.433
Fe 11.464 8.598 0
Fe 12.897 10.031 1.433
Fe 14.33 8.598 0
Fe 15.763 10.031 1.433
Fe 0 11.464 0
Fe 1.433 12.897 1.433
Fe 2.866 11.464 0
Fe 4.299 12.897 1.433
Fe 5.732 11.464 0
Fe 7.165 12.897 1.433
Fe 8.598 11.464 0
Fe 10.031 12.897 1.433
Fe 11.464 11.464 0
Fe 12.897 12.897 1.433
Fe 14.33 11.464 0
Fe 15.763 12.897 1.433
Fe 0 14.33 0
Fe 1.433 15.763 1.433
Fe 2.866 14.33 0
Fe 4.299 15.763 1.433
Fe 5.732 14.33 0
Fe 7.165 15.763 1.433
Fe 8.598 14.33 0
Fe 10.031 15.763 1.433
Fe 11.464 14.33 0
Fe 12.897 15.763 1.433
Fe 14.33 14.33 0
Fe 15.763 15.763 1.433
Fe 0 0 2.866
Fe 1.52074 1.4851 4.2004
Fe 2.866 0 2.866
Fe 4.31872 1.38995 4.33968
Fe 5.732 0 2.866
Fe 7.18337 1.2914 4.24327
Fe 8.598 0 2.866
Fe 10.0552 1.4268 4.36418
Fe 11.464 0 2.866
Fe 13.033 1.44016 4.28802
Fe 14.33 0 2.866
Fe 15.8133 1.40986 4.29776
Fe 0 2.866 2.866
Fe 1.53309 4.31367 4.23574
Fe 2.866 2.866 2.866
Fe 4.36048 4.20268 4.37555
Fe 5.732 2.866 2.866
Fe 7.04325 4.22272 4.29107
Fe 8.598 2.866 2.866
Fe 9.96418 4.32685 4.33694
Fe 11.464 2.866 2.866
Fe 12.8352 4.17623 4.31119
Fe 14.33 2.866 2.866
Fe 15.827 4.32931 4.17083
Fe 0 5.732 2.866
Fe 1.37432 7.24862 4.31365
Fe 2.866 5.732 2.866
Fe 4.2815 7.13864 4.37044
Fe 5.732 5.732 2.866
Fe 7.224 7.04464 4.468
Fe 8.598 5.732 2.866
Fe 10.098 7.1195 4.24049
Fe 11.464 5.732 2.866
Fe 12.8806 7.04147 4.32205
Fe 14.33 5.732 2.866
Fe 15.8212 7.13103 4.33543
Fe 0 8.598 2.866
Fe 1.38096 9.96423 4.19693
Fe 2.866 8.598 2.866
Fe 4.35083 10.1474 4.42249
Fe 5.732 8.598 2.866
Fe 7.09286 10.0433 4.21715
Fe 8.598 8.598 2.866
Fe 9.99269 9.94587 4.3084
Fe 11.464 8.598 2.866
Fe 12.7931 9.94223 4.21867
Fe 14.33 8.598 2.866
Fe 15.7539 10.0609 4.18974
Fe 0 11.464 2.866
Fe 1.56934 12.7117 4.18885
Fe 2.866 11.464 2.866
Fe 4.4598 13.0442 4.41209
Fe 5.732 11.464 2.866
Fe 7.0853 12.884 4.3515
Fe 8.598 11.464 2.866
Fe 10.0618 12.9762 4.34707
Fe 11.464 11.464 2.866
Fe 12.899 12.8864 4.24677
Fe 14.33 11.464 2.866
Fe 15.7829 12.8072 4.2658
Fe 0 14.33 2.866
Fe 1.47577 15.677 4.30479
Fe 2.866 14.33 2.866
Fe 4.36683 15.8311 4.24235
Fe 5.732 14.33 2.866
Fe 7.03917 15.7407 4.35934
Fe 8.598 14.33 2.866
Fe 9.93884 15.706 4.29359
Fe 11.464 14.33 2.866
Fe 12.8406 15.8033 4.3387
Fe 14.33 14.33 2.866
Fe 15.7653 15.7827 4.35854
Fe 17.3325 17.1558 5.68338
Fe 1.38325 1.44121 7.04282
Fe 2.70816 0.0170429 5.59672
Fe 4.24361 1.4075 7.08082
Fe 5.77034 0.0516102 5.83438
Fe 7.09418 1.50491 7.12575
Fe 8.63785 0.105789 5.70578
Fe 10.0179 1.50781 7.20411
Fe 11.4288 17.083 5.73596
Fe 12.7983 1.28532 7.06366
Fe 14.2173 0.0751325 5.70849
Fe 15.795 1.38094 7.16902
Fe 17.2046 2.8604 5.56735
Fe 1.49159 4.28635 7.0756
Fe 2.89816 2.9404 5.79373
Fe 4.2911 4.40229 7.09929
Fe 5.64585 2.72345 5.76478
Fe 7.1077 4.27852 7.13561
Fe 8.37275 2.85565 5.68005
Fe 10.0948 4.20715 7.13539
Fe 11.5446 2.8156 5.63845
Fe 12.9296 4.2785 7.04923
Fe 14.3701 2.90776 5.78168
Fe 15.832 4.26372 6.99
Fe 0.00714255 5.71676 5.702
Fe 1.49031 7.05996 7.12265
Fe 2.79288 5.73984 5.65914
Fe 4.14039 7.14651 7.15366
Fe 5.80695 5.71454 5.76798
Fe 7.12858 7.20863 7.23905
Fe 8.59921 5.69705 5.83154
Fe 9.93437 7.15815 6.94071
Fe 11.4943 5.71423 5.73769
Fe 12.9585 7.18684 7.12644
Fe 14.3137 5.67962 5.6217
Fe 15.7 7.22539 7.05266
Fe -0.0404717 8.66246 5.73054
Fe 1.60887 9.86009 7.16607
Fe 2.93744 8.8192 5.67617
Fe 4.40133 10.0631 7.12243
Fe 5.75943 8.49229 5.75322
Fe 7.17825 9.99114 7.26149
Fe 8.63003 8.61015 5.70123
Fe 10.0714 10.0008 7.2658
Fe 11.4234 8.46845 5.78752
Fe 12.8212 9.89695 7.0844
Fe 14.3417 8.54659 5.58085
Fe 15.8021 10.0106 7.00781
Fe 0.100068 11.4444 5.69313
Fe 1.40676 12.9083 7.07194
Fe 2.79149 11.539 5.73099
Fe 4.25567 12.8506 7.11566
Fe 5.83328 11.4313 5.82716
Fe 7.08762 12.9161 7.21168
Fe 8.54385 11.4741 5.72055
Fe 10.0183 12.9605 7.17458
Fe 11.315 11.48 5.61282
Fe 12.8187 12.8164 6.91883
Fe 14.1868 11.4091 5.62285
Fe 15.7308 12.9116 7.15989
Fe 0.0827866 14.2144 5.63482
Fe 1.4944 15.7958 7.113
Fe 2.90613 14.4009 5.75014
Fe 4.40133 15.7674 7.10759
Fe 5.71738 14.4317 5.89666
Fe 7.05531 15.8788 7.08729
Fe 8.51954 14.2365 5.70212
Fe 9.97734 15.7741 7.20699
Fe 11.5312 14.3108 5.83224
Fe 12.9663 15.7373 7.07773
Fe 14.42 14.3235 5.62669
Fe 15.7159 15.6865 7.12753
Fe 0.0157991 0.0479371 8.54249
Fe 1.30835 1.47609 10.0623
Fe 2.94817 17.1166 8.56625
Fe 4.18192 1.50849 9.99054
Fe 5.74846 0.0829147 8.63624
Fe 7.09141 1.34946 10.0622
Fe 8.48535 17.1556 8.37649
Fe 10.0217 1.39967 9.88508
Fe 11.5562 17.125 8.54958
Fe 12.9771 1.52447 9.8047
Fe 14.4399 17.0134 8.486
Fe 15.84 1.41523 9.91235
Fe 17.1146 2.98267 8.45822
Fe 1.36407 4.38718 9.92077
Fe 2.89758 2.79905 8.56463
Fe 4.19667 4.33503 9.96445
Fe 5.67622 2.89762 8.55427
Fe 7.17919 4.3875 10.0419
Fe 8.44922 2.91111 8.53035
Fe 10.1109 4.27602 9.8878
Fe 11.4975 2.92796 8.52415
Fe 12.9916 4.26109 9.90628
Fe 14.2753 2.70157 8.34556
Fe 15.7161 4.27216 9.84108
Fe 17.164 5.69793 8.45815
Fe 1.50524 7.21879 9.93853
Fe 2.97025 5.70332 8.72545
Fe 4.39487 7.32286 10.1808
Fe 5.70078 5.78512 8.67071
Fe 7.23825 7.20642 10.0987
Fe 8.57632 5.61284 8.49133
Fe 10.0153 7.22029 9.85139
Fe 11.4199 5.74488 8.36147
Fe 12.8013 7.10762 9.70893
Fe 14.4482 5.64372 8.50829
Fe 15.6664 7.24216 9.88239
Fe 0.154921 8.5747 8.55043
Fe 1.47683 10.0921 9.98761
Fe 2.89257 8.60789 8.6389
Fe 4.40187 10.0367 10.0749
Fe 5.75173 8.55924 8.61002
Fe 7.2003 10.0038 10.0273
Fe 8.56355 8.555 8.58881
Fe 9.94763 10.0097 9.82508
Fe 11.3333 8.55176 8.46705
Fe 12.8077 9.84044 9.70313
Fe 14.2722 8.57189 8.244
Fe 15.6888 10.1794 9.79465
Fe 0.0141681 11.4771 8.50705
Fe 1.45279 12.9594 10.0072
Fe 2.8198 11.4472 8.55443
Fe 4.24651 12.8598 10.0651
Fe 5.83546 11.5139 8.64677
Fe 7.29854 12.9305 10.0697
Fe 8.52421 11.488 8.54657
Fe 10.0651 12.9194 9.85886
Fe 11.5208 11.525 8.60188
Fe 12.8727 12.8049 9.9064
Fe 14.2924 11.3239 8.26378
Fe 15.8084 12.7865 9.91745
Fe 0.0176756 14.4278 8.4651
Fe 1.46432 15.8041 9.98133
Fe 2.95023 14.2431 8.52944
Fe 4.28104 15.7455 10.0971
Fe 5.72518 14.3536 8.71839
Fe 7.11724 15.7089 10.0183
Fe 8.47412 14.3223 8.57957
Fe 9.94611 15.8324 9.99909
Fe 11.3037 14.4308 8.44116
Fe 12.8459 15.6574 9.90268
Fe 14.1949 14.203 8.46594
Fe 15.8185 15.6652 9.87206
Fe 17.0867 17.1118 11.4614
Fe 1.22745 1.50878 12.9178
Fe 2.79243 17.239 11.4597
Fe 4.31171 1.46032 13.0338
Fe 5.60895 0.0559291 11.4951
Fe 7.13389 1.50303 12.9619
Fe 8.52587 17.1152 11.435
Fe 10.1191 1.48551 12.7619
Fe 11.5801 0.0918 11.3364
Fe 12.8536 1.47342 12.7727
Fe 14.3405 17.0912 11.2944
Fe 15.7668 1.38939 12.764
Fe 17.0964 2.98657 11.3436
Fe 1.32316 4.28028 12.9871
Fe 2.82678 2.92551 11.4931
Fe 4.13173 4.47147 12.9519
Fe 5.57852 2.99073 11.4306
Fe 7.01973 4.24971 12.9006
Fe 8.57291 2.82975 11.3469
Fe 10.1041 4.30943 12.7979
Fe 11.5726 2.95113 11.2543
Fe 12.947 4.31102 12.8097
Fe 14.3915 2.80045 11.4421
Fe 15.7524 4.2426 12.8143
Fe 17.0994 5.92357 11.4628
Fe 1.35608 7.28763 12.9529
Fe 2.76121 5.82133 11.4589
Fe 4.2563 7.16661 13.028
Fe 5.64525 5.80733 11.4668
Fe 7.1603 7.28469 12.9901
Fe 8.56842 5.75318 11.3526
Fe 10.0927 7.19468 12.7142
Fe 11.4931 5.85332 11.3218
Fe 13.036 7.06688 12.7938
Fe 14.339 5.70565 11.2285
Fe 15.5955 7.13031 12.7857
Fe -0.024072 8.6185 11.3906
Fe 1.26721 10.1323 13.0704
Fe 2.83082 8.75423 11.6174
Fe 4.36303 10.1732 12.921
Fe 5.88517 8.60399 11.6405
Fe 7.33679 9.92041 12.9377
Fe 8.77489 8.57066 11.4492
Fe 10.1695 9.93054 12.8656
Fe 11.5568 8.63932 11.3939
Fe 12.8863 10.1204 12.6951
Fe 14.2544 8.54086 11.2998
Fe 15.715 10.1597 12.9085
Fe -0.00689656 11.398 11.4452
Fe 1.40205 12.9917 12.8637
Fe 2.9111 11.4994 11.5463
Fe 4.27681 12.9455 12.9632
Fe 5.79166 11.5182 11.4139
Fe 7.13945 12.985 12.8907
Fe 8.64952 11.5067 11.515
Fe 10.0216 12.9226 12.8709
Fe 11.3586 11.4041 11.298
Fe 13.0522 12.8192 12.919
Fe 14.2527 11.4054 11.3137
Fe 15.8512 12.8586 12.7991
Fe 0.110606 14.2382 11.3678
Fe 1.34132 15.7588 12.883
Fe 2.91015 14.3556 11.4671
Fe 4.22895 15.7618 13.0033
Fe 5.78339 14.3315 11.5473
Fe 7.15429 15.7994 12.9376
Fe 8.75834 14.3442 11.4363
Fe 9.99764 15.8631 12.9475
Fe 11.5459 14.2386 11.3033
Fe 12.9448 15.6037 12.7204
Fe 14.3348 14.3175 11.2104
Fe 15.7808 15.6505 12.8205
O 9.82261 6.0618 39.0845
O 13.5634 12.4882 25.147
O 7.59654 10.5762 33.8854
O 13.214 2.02148 27.5235
O 6.32118 9.62427 23.6789
O 13.5478 3.99753 21.553
O 13.7353 13.5056 38.7264
O 6.99403 14.8113 39.2124
O 3.59986 11.4067 33.9866
O 15.9785 9.7188 31.9039
O 3.69156 0.695287 31.1582
O 4.86878 10.7024 20.9501
O 9.98838 3.5613 35.202
O 9.87628 14.7969 30.2431
O 5.03675 9.43878 40.2077
O 3.01682 1.8107 39.2799
O 3.18583 7.41928 35.0853
O 6.62327 2.4634 25.4064
O 1.42109 6.42484 30.0171
O 2.17669 1.34867 19.195
O 3.65736 11.7981 25.5306
O 9.97905 8.2483 28.2226
O 10.0325 16.8913 20.1684
O 15.0722 2.11222 33.633
O 9.30444 8.25248 20.0307
O 2.69074 8.16352 23.9111
O 3.4216 15.5156 35.5429
O 13.9915 15.8158 30.0548
O 16.1362 5.87512 39.6821
O 2.83687 2.57355 25.8028
O 7.49305 5.35685 22.4742
391
 Atoms. Timestep: 600
Fe 0 0 0
Fe 1.433 1.433 1.433
Fe 2.866 0 0
Fe 4.299 1.433 1.433
Fe 5.732 0 0
Fe 7.165 1.433 1.433
Fe 8.598 0 0
Fe 10.031 1.433 1.433
Fe 11.464 0 0
Fe 12.897 1.433 1.433
Fe 14.33 0 0
Fe 15.763 1.433 1.433
Fe 0 2.866 0
Fe 1.433 4.299 1.433
Fe 2.866 2.866 0
Fe 4.299 4.299 1.433
Fe 5.732 2.866 0
Fe 7.165 4.299 1.433
Fe 8.598 2.866 0
Fe 10.031 4.299 1.433
Fe 11.464 2.866 0
Fe 12.897 4.299 1.433
Fe 14.33 2.866 0
Fe 15.763 4.299 1.433
Fe 0 5.732 0
Fe 1.433 7.165 1.433
Fe 2.866 5.732 0
Fe 4.299 7.165 1.433
Fe 5.732 5.732 0
Fe 7.165 7.165 1.433
Fe 8.598 5.732 0
Fe 10.031 7.165 1.433
Fe 11.464 5.732 0
Fe 12.897 7.165 1.433
Fe 14.33 5.732 0
Fe 15.763 7.165 1.433
Fe 0 8.598 0
Fe 1.433 10.031 1.433
Fe 2.866 8.598 0
Fe 4.299 10.031 1.433
Fe 5.732 8.598 0
Fe 7.165 10.031 1.433
Fe 8.598 8.598 0
Fe 10.031 10.031 1.433
Fe 11.464 8.598 0
Fe 12.897 10.031 1.433
Fe 14.33 8.598 0
Fe 15.763 10.031 1.433
Fe 0 11.464 0
Fe 1.433 12.897 1.433
Fe 2.866 11.464 0
Fe 4.299 12.897 1.433
Fe 5.732 11.464 0
Fe 7.165 12.897 1.433
Fe 8.598 11.464 0
Fe 10.031 12.897 1.433
Fe 11.464 11.464 0
Fe 12.897 12.897 1.433
Fe 14.33 11.464 0
Fe 15.763 12.897 1.433
Fe 0 14.33 0
Fe 1.433 15.763 1.433
Fe 2.866 14.33 0
Fe 4.299 15.763 1.433
Fe 5.732 14.33 0
Fe 7.165 15.763 1.433
Fe 8.598 14.33 0
Fe 10.031 15.763 1.433
Fe 11.464 14.33 0
Fe 12.897 15.763 1.433
Fe 14.33 14.33 0
Fe 15.763 15.763 1.433
Fe 0 0 2.866
Fe 1.45667 1.47818 4.22038
Fe 2.866 0 2.866
Fe 4.24464 1.43335 4.23262
Fe 5.732 0 2.866
Fe 7.16073 1.33237 4.26527
Fe 8.598 0 2.866
Fe 10.0244 1.39407 4.29668
Fe 11.464 0 2.866
Fe 12.9381 1.3734 4.30636
Fe 14.33 0 2.866
Fe 15.8513 1.44593 4.25194
Fe 0 2.866 2.866
Fe 1.44369 4.47712 4.23415
Fe 2.866 2.866 2.866
Fe 4.30513 4.28322 4.37949
Fe 5.732 2.866 2.866
Fe 7.03222 4.29363 4.31648
Fe 8.598 2.866 2.866
Fe 10.0132 4.35717 4.33144
Fe 11.464 2.866 2.866
Fe 12.8869 4.21409 4.2763
Fe 14.33 2.866 2.866
Fe 15.7334 4.3723 4.19061
Fe 0 5.732 2.866
Fe 1.30409 7.24314 4.28152
Fe 2.866 5.732 2.866
Fe 4.31355 7.13179 4.38044
Fe 5.732 5.732 2.866
Fe 7.25087 7.00036 4.42149
Fe 8.598 5.732 2.866
Fe 10.0411 7.11543 4.35588
Fe 11.464 5.732 2.866
Fe 12.905 7.08617 4.25355
Fe 14.33 5.732 2.866
Fe 15.7512 7.16345 4.25908
Fe 0 8.598 2.866
Fe 1.35953 9.9898 4.18327
Fe 2.866 8.598 2.866
Fe 4.32224 10.146 4.33528
Fe 5.732 8.598 2.866
Fe 7.09096 9.95917 4.32855
Fe 8.598 8.598 2.866
Fe 10.0139 9.98684 4.28849
Fe 11.464 8.598 2.866
Fe 12.6804 9.96446 4.16886
Fe 14.33 8.598 2.866
Fe 15.7784 10.0345 4.12253
Fe 0 11.464 2.866
Fe 1.50235 12.8302 4.13539
Fe 2.866 11.464 2.866
Fe 4.42814 13.0257 4.33953
Fe 5.732 11.464 2.866
Fe 7.18332 12.9391 4.38518
Fe 8.598 11.464 2.866
Fe 9.99905 12.8663 4.37954
Fe 11.464 11.464 2.866
Fe 12.79 12.8464 4.26911
Fe 14.33 11.464 2.866
Fe 15.885 12.8264 4.28844
Fe 0 14.33 2.866
Fe 1.40037 15.7399 4.18212
Fe 2.866 14.33 2.866
Fe 4.44 15.8611 4.30736
Fe 5.732 14.33 2.866
Fe 7.11879 15.6571 4.3719
Fe 8.598 14.33 2.866
Fe 9.89829 15.7142 4.32558
Fe 11.464 14.33 2.866
Fe 12.9912 15.7837 4.29294
Fe 14.33 14.33 2.866
Fe 15.7811 15.7723 4.32128
Fe 0.207069 17.1523 5.65322
Fe 1.36312 1.49996 7.07801
Fe 2.76657 17.1845 5.6783
Fe 4.19781 1.3706 7.21463
Fe 5.77282 0.0491848 5.81197
Fe 7.08084 1.45199 7.13137
Fe 8.58093 0.125157 5.68847
Fe 9.94036 1.54149 7.16633
Fe 11.3895 17.0574 5.75221
Fe 12.8204 1.2883 7.05534
Fe 14.3057 0.0121632 5.76298
Fe 15.8285 1.3815 7.10415
Fe 0.0494428 2.89172 5.53703
Fe 1.45396 4.40213 7.13068
Fe 2.92404 2.85826 5.65574
Fe 4.22145 4.32518 7.13194
Fe 5.6495 2.69819 5.73413
Fe 7.08264 4.34786 7.13725
Fe 8.37186 2.81071 5.71225
Fe 10.0221 4.19388 7.03815
Fe 11.5821 2.85118 5.68831
Fe 12.8597 4.21302 7.03759
Fe 14.3183 2.8414 5.68938
Fe 15.8001 4.30083 6.98584
Fe 0.00118488 5.62433 5.59985
Fe 1.49078 7.06264 7.21619
Fe 2.83344 5.67737 5.51715
Fe 4.13001 7.15988 7.14635
Fe 5.73607 5.75777 5.73077
Fe 7.16486 7.17355 7.18601
Fe 8.54465 5.7728 5.77511
Fe 9.99692 7.24977 6.9556
Fe 11.5229 5.7311 5.72749
Fe 12.9928 7.22387 7.14587
Fe 14.3516 5.67359 5.57082
Fe 15.7152 7.18485 7.11383
Fe 17.1496 8.63158 5.77804
Fe 1.56176 9.97591 7.22422
Fe 2.91434 8.84082 5.62528
Fe 4.34552 10.0838 7.13245
Fe 5.71514 8.52842 5.69947
Fe 7.1442 9.96148 7.24831
Fe 8.62808 8.63491 5.72932
Fe 10.0442 10.0942 7.26599
Fe 11.4023 8.41975 5.69202
Fe 12.8204 9.94003 7.05184
Fe 14.3115 8.5621 5.56861
Fe 15.7571 10.0765 7.11902
Fe 0.0252394 11.4811 5.66448
Fe 1.42382 12.9835 7.07847
Fe 2.73411 11.525 5.67423
Fe 4.24323 12.8611 7.02573
Fe 5.91406 11.3697 5.8001
Fe 7.08127 12.8548 7.18391
Fe 8.57831 11.3946 5.62194
Fe 10.0123 12.9174 7.16253
Fe 11.3636 11.4361 5.53599
Fe 12.8042 12.7852 6.88323
Fe 14.1707 11.3546 5.59775
Fe 15.7386 12.8839 7.06652
Fe 0.095341 14.2682 5.59657
Fe 1.49675 15.7581 7.0629
Fe 2.8852 14.388 5.71135
Fe 4.33596 15.8091 7.1276
Fe 5.80429 14.3751 5.81215
Fe 7.04343 15.8324 7.13479
Fe 8.49773 14.1745 5.68119
Fe 9.96575 15.7495 7.15048
Fe 11.4707 14.2635 5.80048
Fe 12.9803 15.7125 7.05642
Fe 14.4243 14.2825 5.55557
Fe 15.9355 15.6627 7.05786
Fe 0.0155448 0.0382132 8.58771
Fe 1.36299 1.46567 10.0154
Fe 2.93478 17.1017 8.61856
Fe 4.13179 1.39394 10.0621
Fe 5.78561 0.0292509 8.62177
Fe 7.10992 1.44849 9.99364
Fe 8.43861 0.0421053 8.37371
Fe 10.007 1.42809 9.8116
Fe 11.4611 17.1939 8.47379
Fe 12.8582 1.54359 9.75072
Fe 14.3699 17.0898 8.49992
Fe 15.9012 1.50139 9.93627
Fe 17.0969 3.0674 8.40508
Fe 1.39118 4.31303 9.96489
Fe 2.84047 2.83344 8.61578
Fe 4.19416 4.32291 10.0389
Fe 5.63353 2.80565 8.57047
Fe 7.28243 4.41501 10.0483
Fe 8.50564 3.0053 8.53657
Fe 10.0388 4.30475 9.86121
Fe 11.4828 2.88167 8.5111
Fe 12.9022 4.24688 9.90727
Fe 14.3244 2.76028 8.30447
Fe 15.7008 4.22578 9.92663
Fe 0.00761386 5.66919 8.43448
Fe 1.59401 7.25447 9.88739
Fe 2.99678 5.66454 8.63304
Fe 4.40093 7.21972 10.127
Fe 5.70879 5.87395 8.71269
Fe 7.34064 7.22794 10.1522
Fe 8.6997 5.66192 8.49695
Fe 9.92713 7.20758 9.84624
Fe 11.3909 5.77328 8.29799
Fe 12.9364 7.14699 9.794
Fe 14.4188 5.61053 8.44118
Fe 15.6574 7.15287 9.88248
Fe 0.148812 8.64918 8.50852
Fe 1.56694 10.0373 10.0357
Fe 3.04678 8.62765 8.62745
Fe 4.42814 10.1047 10.0562
Fe 5.72993 8.61315 8.63145
Fe 7.08732 9.94221 9.99027
Fe 8.48156 8.63011 8.54224
Fe 9.95573 10.0863 9.90397
Fe 11.3939 8.61192 8.4546
Fe 12.8459 9.8553 9.71753
Fe 14.3173 8.69296 8.2543
Fe 15.7201 10.1332 9.82012
Fe 0.0339609 11.4869 8.46657
Fe 1.4755 12.9992 10.0005
Fe 2.81879 11.4488 8.5296
Fe 4.26463 12.8225 10.1213
Fe 5.88881 11.5107 8.66485
Fe 7.27323 12.8659 10.0291
Fe 8.48973 11.5462 8.58353
Fe 10.0007 12.961 9.82878
Fe 11.5415 11.4973 8.50619
Fe 12.8878 12.807 9.94344
Fe 14.2536 11.325 8.19518
Fe 15.8238 12.7603 9.84604
Fe 17.1373 14.3619 8.41727
Fe 1.60248 15.7423 9.99295
Fe 2.98097 14.2488 8.50501
Fe 4.32064 15.7048 10.0718
Fe 5.74441 14.2409 8.63071
Fe 7.10035 15.7017 9.99932
Fe 8.57287 14.3216 8.50147
Fe 9.93181 15.8927 9.96621
Fe 11.3816 14.3727 8.48915
Fe 12.8594 15.6888 9.90133
Fe 14.1876 14.1328 8.43665
Fe 15.8459 15.7248 9.86413
Fe 17.0229 17.1223 11.3193
Fe 1.19154 1.39154 12.8636
Fe 2.81411 0.118761 11.3768
Fe 4.29294 1.48562 12.9624
Fe 5.62936 0.0368481 11.4298
Fe 7.09634 1.57022 13.0044
Fe 8.61285 0.0510493 11.5454
Fe 10.0594 1.31554 12.7328
Fe 11.523 0.0630776 11.3656
Fe 12.9328 1.48191 12.8473
Fe 14.2619 17.1695 11.3918
Fe 15.7602 1.38635 12.6695
Fe 17.1565 3.04695 11.2757
Fe 1.37251 4.36926 13.0621
Fe 2.81256 2.84852 11.5448
Fe 4.12113 4.47001 12.8954
Fe 5.50357 2.91285 11.4262
Fe 6.97991 4.37203 12.778
Fe 8.70802 2.82494 11.4354
Fe 10.1148 4.23017 12.7481
Fe 11.4878 2.88874 11.1608
Fe 12.9696 4.31528 12.6718
Fe 14.3732 2.76682 11.3388
Fe 15.8324 4.20722 12.745
Fe 17.1175 5.91446 11.3703
Fe 1.37186 7.31841 12.8647
Fe 2.77755 5.77955 11.4414
Fe 4.16852 7.11115 13.034
Fe 5.74105 5.82133 11.4348
Fe 7.1725 7.13757 12.9905
Fe 8.64171 5.75836 11.4425
Fe 10.0366 7.10584 12.6007
Fe 11.4876 5.76647 11.3059
Fe 12.9129 7.03897 12.7432
Fe 14.333 5.72036 11.2019
Fe 15.5375 7.17113 12.8263
Fe 17.0466 8.59635 11.2749
Fe 1.29336 10.0376 12.9915
Fe 2.85293 8.75254 11.5126
Fe 4.45417 10.1317 12.7914
Fe 5.85516 8.63925 11.5871
Fe 7.28478 10.0416 12.8651
Fe 8.71133 8.55091 11.3679
Fe 10.0509 9.92969 12.7961
Fe 11.5802 8.64401 11.2909
Fe 12.9612 10.126 12.6454
Fe 14.2899 8.62349 11.3413
Fe 15.6992 10.0729 12.8129
Fe 17.1464 11.3881 11.3584
Fe 1.33535 12.9884 12.8849
Fe 2.92975 11.4958 11.5251
Fe 4.24782 12.9674 13.0464
Fe 5.74198 11.5643 11.517
Fe 7.08178 13.0044 12.8099
Fe 8.60738 11.4263 11.5144
Fe 10.0792 12.829 12.6686
Fe 11.4055 11.47 11.2869
Fe 13.0274 12.8234 12.7816
Fe 14.2775 11.3714 11.2442
Fe 15.8609 12.9788 12.7209
Fe 0.0276794 14.3402 11.3948
Fe 1.34778 15.7166 12.8068
Fe 2.87183 14.3486 11.4158
Fe 4.31808 15.8514 12.8801
Fe 5.75869 14.3517 11.54
Fe 7.14135 15.8648 12.7971
Fe 8.80335 14.4007 11.4615
Fe 10.1169 15.8486 12.8531
Fe 11.5718 14.1922 11.3826
Fe 12.9286 15.6092 12.6809
Fe 14.3029 14.2781 11.3592
Fe 15.6645 15.6714 12.8082
O 9.69289 5.80277 38.9437
O 13.3404 12.5581 25.3832
O 7.28584 10.5128 33.8917
O 13.2157 1.87336 27.3445
O 6.28943 9.52573 23.4507
O 14.0059 3.79395 21.2881
O 13.7519 13.5947 39.0998
O 6.69192 15.0841 39.4728
O 3.62894 11.4796 34.1995
O 16.3345 9.91826 31.912
O 3.38973 0.456969 31.0678
O 4.84105 10.5098 20.9927
O 10.3092 3.76073 34.7923
O 9.81515 14.6116 30.5951
O 5.29339 9.11546 40.5002
O 3.0646 1.55574 39.3315
O 2.78394 7.70799 35.0357
O 6.41837 2.50192 25.5405
O 1.12836 6.39251 30.0618
O 1.98276 1.21898 18.8154
O 3.91763 11.5912 25.538
O 10.1882 8.64613 27.8301
O 9.79939 0.0423411 20.0032
O 15.3994 2.07557 33.2895
O 9.16202 7.95022 19.8385
O 2.92841 8.37917 24.0387
O 3.66788 15.6493 35.2455
O 13.7484 15.8472 29.7586
O 16.2726 5.65855 39.6665
O 3.12148 2.71324 25.6179
O 7.74256 5.25531 22.7415
391
 Atoms. Timestep: 700
Fe 0 0 0
Fe 1.433 1.433 1.433
Fe 2.866 0 0
Fe 4.299 1.433 1.433
Fe 5.732 0 0
Fe 7.165 1.433 1.433
Fe 8.598 0 0
Fe 10.031 1.433 1.433
Fe 11.464 0 0
Fe 12.897 1.433 1.433
Fe 14.33 0 0
Fe 15.763 1.433 1.433
Fe 0 2.866 0
Fe 1.433 4.299 1.433
Fe 2.866 2.866 0
Fe 4.299 4.299 1.433
Fe 5.732 2.866 0
Fe 7.165 4.299 1.433
Fe 8.598 2.866 0
Fe 10.031 4.299 1.433
Fe 11.464 2.866 0
Fe 12.897 4.299 1.433
Fe 14.33 2.866 0
Fe 15.763 4.299 1.433
Fe 0 5.732 0
Fe 1.433 7.165 1.433
Fe 2.866 5.732 0
Fe 4.299 7.165 1.433
Fe 5.732 5.732 0
Fe 7.165 7.165 1.433
Fe 8.598 5.732 0
Fe 10.031 7.165 1.433
Fe 11.464 5.732 0
Fe 12.897 7.165 1.433
Fe 14.33 5.732 0
Fe 15.763 7.165 1.433
Fe 0 8.598 0
Fe 1.433 10.031 1.433
Fe 2.866 8.598 0
Fe 4.299 10.031 1.433
Fe 5.732 8.598 0
Fe 7.165 10.031 1.433
Fe 8.598 8.598 0
Fe 10.031 10.031 1.433
Fe 11.464 8.598 0
Fe 12.897 10.031 1.433
Fe 14.33 8.598 0
Fe 15.763 10.031 1.433
Fe 0 11.464 0
Fe 1.433 12.897 1.433
Fe 2.866 11.464 0
Fe 4.299 12.897 1.433
Fe 5.732 11.464 0
Fe 7.165 12.897 1.433
Fe 8.598 11.464 0
Fe 10.031 12.897 1.433
Fe 11.464 11.464 0
Fe 12.897 12.897 1.433
Fe 14.33 11.464 0
Fe 15.763 12.897 1.433
Fe 0 14.33 0
Fe 1.433 15.763 1.433
Fe 2.866 14.33 0
Fe 4.299 15.763 1.433
Fe 5.732 14.33 0
Fe 7.165 15.763 1.433
Fe 8.598 14.33 0
Fe 10.031 15.763 1.433
Fe 11.464 14.33 0
Fe 12.897 15.763 1.433
Fe 14.33 14.33 0
Fe 15.763 15.763 1.433
Fe 0 0 2.866
Fe 1.39163 1.45293 4.25541
Fe 2.866 0 2.866
Fe 4.22074 1.44464 4.16669
Fe 5.732 0 2.866
Fe 7.09242 1.44151 4.26705
Fe 8.598 0 2.866
Fe 10.0129 1.4232 4.24244
Fe 11.464 0 2.866
Fe 12.7956 1.31284 4.29386
Fe 14.33 0 2.866
Fe 15.8116 1.44242 4.24728
Fe 0 2.866 2.866
Fe 1.34995 4.45587 4.21615
Fe 2.866 2.866 2.866
Fe 4.26884 4.36651 4.27773
Fe 5.732 2.866 2.866
Fe 7.11951 4.33783 4.33357
Fe 8.598 2.866 2.866
Fe 10.0421 4.30156 4.31481
Fe 11.464 2.866 2.866
Fe 12.9409 4.31967 4.20351
Fe 14.33 2.866 2.866
Fe 15.6578 4.31492 4.24013
Fe 0 5.732 2.866
Fe 1.35522 7.21497 4.28679
Fe 2.866 5.732 2.866
Fe 4.31453 7.1796 4.29737
Fe 5.732 5.732 2.866
Fe 7.20633 7.11779 4.24771
Fe 8.598 5.732 2.866
Fe 9.95442 7.12601 4.36223
Fe 11.464 5.732 2.866
Fe 12.9106 7.178 4.18166
Fe 14.33 5.732 2.866
Fe 15.7022 7.21044 4.18713
Fe 0 8.598 2.866
Fe 1.38606 10.0635 4.25224
Fe 2.866 8.598 2.866
Fe 4.29737 10.11 4.20082
Fe 5.732 8.598 2.866
Fe 7.16002 9.88772 4.39365
Fe 8.598 8.598 2.866
Fe 10.0065 10.0134 4.25216
Fe 11.464 8.598 2.866
Fe 12.7299 9.98851 4.19762
Fe 14.33 8.598 2.866
Fe 15.7775 9.99286 4.20566
Fe 0 11.464 2.866
Fe 1.41069 13.0271 4.18222
Fe 2.866 11.464 2.866
Fe 4.3176 12.8926 4.24837
Fe 5.732 11.464 2.866
Fe 7.23275 12.9099 4.30106
Fe 8.598 11.464 2.866
Fe 9.94306 12.7988 4.30377
Fe 11.464 11.464 2.866
Fe 12.7655 12.8645 4.2455
Fe 14.33 11.464 2.866
Fe 15.8705 12.8747 4.2754
Fe 0 14.33 2.866
Fe 1.39597 15.806 4.09707
Fe 2.866 14.33 2.866
Fe 4.39616 15.8243 4.38217
Fe 5.732 14.33 2.866
Fe 7.2502 15.6904 4.31595
Fe 8.598 14.33 2.866
Fe 9.95143 15.7292 4.35417
Fe 11.464 14.33 2.866
Fe 13.0375 15.7201 4.24469
Fe 14.33 14.33 2.866
Fe 15.8162 15.7792 4.24039
Fe 0.109393 17.188 5.6375
Fe 1.41405 1.54316 7.18479
Fe 2.95369 17.1793 5.76597
Fe 4.16239 1.35903 7.30511
Fe 5.71068 0.0368145 5.70078
Fe 7.08201 1.4345 7.18242
Fe 8.50507 0.0109779 5.69729
Fe 9.91518 1.50174 7.05138
Fe 11.3661 17.1131 5.70841
Fe 12.8831 1.37034 7.06103
Fe 14.4991 -0.0827454 5.76381
Fe 15.87 1.38336 6.97722
Fe 0.0813551 2.93475 5.60589
Fe 1.46081 4.41872 7.13455
Fe 2.85287 2.77762 5.56465
Fe 4.22174 4.22893 7.18628
Fe 5.66577 2.80408 5.70028
Fe 7.02005 4.3959 7.16706
Fe 8.50599 2.84029 5.70691
Fe 9.92117 4.23875 6.9245
Fe 11.486 2.83133 5.72041
Fe 12.8464 4.2186 7.0771
Fe 14.3279 2.74532 5.5503
Fe 15.7167 4.3256 6.98495
Fe -0.0198461 5.66933 5.58251
Fe 1.49172 7.17622 7.18023
Fe 2.88886 5.70398 5.53744
Fe 4.24044 7.18815 7.11911
Fe 5.60427 5.77562 5.75045
Fe 7.17576 7.12506 7.14694
Fe 8.54173 5.74861 5.69737
Fe 10.0325 7.27639 7.13505
Fe 11.5276 5.71714 5.67333
Fe 12.9663 7.15604 7.08208
Fe 14.3587 5.70614 5.62863
Fe 15.8184 7.10165 7.1335
Fe 17.1927 8.58521 5.7819
Fe 1.43339 10.1315 7.18723
Fe 2.82387 8.65809 5.63418
Fe 4.29662 10.1105 7.17444
Fe 5.68169 8.60548 5.6947
Fe 7.12824 9.97299 7.14391
Fe 8.55781 8.66147 5.74973
Fe 9.97085 10.1786 7.12152
Fe 11.4518 8.52916 5.57914
Fe 12.7632 10.0241 6.90686
Fe 14.2807 8.6329 5.58485
Fe 15.7719 10.1101 7.11894
Fe -0.049032 11.4494 5.67008
Fe 1.45393 13.0013 7.11712
Fe 2.77043 11.4883 5.62024
Fe 4.32166 12.8543 7.01925
Fe 5.86257 11.3863 5.71508
Fe 7.14617 12.8224 7.12033
Fe 8.6162 11.3207 5.64753
Fe 9.97339 12.8002 7.0889
Fe 11.4261 11.333 5.61373
Fe 12.8333 12.8164 6.98207
Fe 14.2854 11.3158 5.52888
Fe 15.7556 12.8268 6.92771
Fe 0.0865237 14.3483 5.58297
Fe 1.48488 15.7192 7.10659
Fe 2.8774 14.3552 5.59875
Fe 4.24397 15.8106 7.17982
Fe 5.80715 14.2644 5.70004
Fe 7.14207 15.6901 7.19953
Fe 8.55774 14.2444 5.76484
Fe 9.9176 15.7407 7.04425
Fe 11.3702 14.3017 5.64178
Fe 12.9529 15.6539 7.06139
Fe 14.3585 14.2158 5.57115
Fe 16.0254 15.7149 6.97777
Fe 0.0732572 -0.0264342 8.55707
Fe 1.4256 1.46259 9.91925
Fe 2.83064 17.1587 8.61244
Fe 4.19434 1.31903 10.0892
Fe 5.70876 -0.0546852 8.61927
Fe 7.16569 1.58715 9.98558
Fe 8.48418 0.111077 8.5248
Fe 9.94664 1.45137 9.81766
Fe 11.341 17.2301 8.42387
Fe 12.8247 1.41357 9.81378
Fe 14.2993 17.219 8.54784
Fe 15.816 1.53588 9.90269
Fe 17.1743 2.99387 8.40613
Fe 1.44381 4.28071 10.0348
Fe 2.74653 2.89488 8.62962
Fe 4.26844 4.30018 10.1294
Fe 5.61938 2.81417 8.63765
Fe 7.23825 4.34468 10.0277
Fe 8.56577 2.98206 8.55459
Fe 9.98341 4.3566 9.89116
Fe 11.4295 2.84052 8.41859
Fe 12.8281 4.30141 9.82448
Fe 14.3961 2.86917 8.38506
Fe 15.703 4.2511 9.98038
Fe 0.0292361 5.75139 8.52649
Fe 1.57637 7.23579 9.91632
Fe 2.93126 5.69663 8.51826
Fe 4.32377 7.14055 10.0781
Fe 5.75693 5.86419 8.65808
Fe 7.30322 7.18834 10.0973
Fe 8.72354 5.82107 8.50542
Fe 9.98075 7.16018 9.85358
Fe 11.4294 5.77508 8.38109
Fe 13.0389 7.17345 9.90434
Fe 14.3019 5.60909 8.34558
Fe 15.716 7.12351 9.81553
Fe 0.0180665 8.68435 8.49815
Fe 1.5689 10.0241 10.0691
Fe 3.14403 8.65507 8.59345
Fe 4.38081 10.1483 10.0221
Fe 5.69389 8.61903 8.62093
Fe 7.07118 9.97903 10.0487
Fe 8.50376 8.67823 8.48966
Fe 9.99639 10.1415 10.0164
Fe 11.448 8.61284 8.46231
Fe 12.93 10.0145 9.84256
Fe 14.4275 8.7258 8.45142
Fe 15.7621 9.96384 9.86564
Fe 0.103342 11.479 8.44653
Fe 1.45687 12.9374 9.96207
Fe 2.90148 11.5005 8.55451
Fe 4.3348 12.8453 10.102
Fe 5.76112 11.4841 8.63647
Fe 7.18555 12.8735 10.0591
Fe 8.54255 11.5207 8.58845
Fe 9.9583 12.9555 9.90759
Fe 11.488 11.4649 8.38726
Fe 12.9319 12.8173 9.90517
Fe 14.2258 11.4685 8.34436
Fe 15.7605 12.8524 9.80128
Fe 17.1639 14.2415 8.48114
Fe 1.5862 15.687 9.95691
Fe 2.96255 14.307 8.51719
Fe 4.3708 15.6869 9.99672
Fe 5.72614 14.1674 8.52027
Fe 7.16771 15.7587 10.0094
Fe 8.62798 14.3791 8.4486
Fe 9.98623 15.8906 9.92012
Fe 11.547 14.2781 8.57401
Fe 12.8976 15.7613 9.89527
Fe 14.2831 14.157 8.42786
Fe 15.7565 15.7287 9.89387
Fe 17.0916 17.1391 11.1537
Fe 1.21824 1.29832 12.7973
Fe 2.8122 0.0951796 11.3602
Fe 4.22605 1.50098 12.909
Fe 5.73192 0.057584 11.3254
Fe 7.06997 1.60713 12.9698
Fe 8.62318 0.187407 11.4818
Fe 10.046 1.25964 12.7793
Fe 11.4681 -0.00629497 11.2896
Fe 12.9812 1.48081 12.9079
Fe 14.207 17.2614 11.3374
Fe 15.742 1.403 12.663
Fe 17.2914 3.01329 11.2486
Fe 1.39573 4.46877 13.0476
Fe 2.7259 2.82725 11.527
Fe 4.17712 4.39204 12.8647
Fe 5.56683 2.82699 11.3632
Fe 7.03084 4.44126 12.6983
Fe 8.73203 2.86467 11.4485
Fe 10.1284 4.17267 12.7285
Fe 11.3922 2.77166 11.1725
Fe 12.9773 4.28293 12.5751
Fe 14.2899 2.78039 11.1385
Fe 15.8405 4.25078 12.7198
Fe 17.1973 5.80031 11.2109
Fe 1.35468 7.30112 12.7769
Fe 2.78386 5.75584 11.3793
Fe 4.1401 7.14688 12.9871
Fe 5.7931 5.81182 11.3818
Fe 7.21653 7.00487 12.9837
Fe 8.71006 5.68443 11.48
Fe 10.0319 7.0467 12.6149
Fe 11.4721 5.64778 11.1638
Fe 12.7509 7.08618 12.7079
Fe 14.3317 5.71577 11.2087
Fe 15.5743 7.20932 12.8794
Fe 17.0028 8.60689 11.1598
Fe 1.35204 9.97475 12.8587
Fe 2.92511 8.65976 11.3558
Fe 4.48668 10.0453 12.7768
Fe 5.74014 8.62161 11.447
Fe 7.20584 10.1698 12.8378
Fe 8.57886 8.61693 11.2894
Fe 9.98348 9.96381 12.753
Fe 11.5127 8.58859 11.1385
Fe 12.9711 10.0646 12.6834
Fe 14.3441 8.68517 11.271
Fe 15.6857 9.97271 12.729
Fe 17.1785 11.43 11.2177
Fe 1.32197 12.9116 12.913
Fe 2.84007 11.499 11.4575
Fe 4.22431 12.9976 13.105
Fe 5.7481 11.5766 11.55
Fe 7.13806 12.9968 12.8009
Fe 8.54815 11.3772 11.3636
Fe 10.1414 12.7566 12.5786
Fe 11.511 11.4771 11.2266
Fe 12.9621 12.8164 12.6749
Fe 14.3545 11.4036 11.1086
Fe 15.787 13.0062 12.6758
Fe -0.103729 14.4425 11.2805
Fe 1.3871 15.7433 12.7607
Fe 2.86233 14.3313 11.3843
Fe 4.34987 15.9237 12.7828
Fe 5.68873 14.3626 11.409
Fe 7.15724 15.9118 12.7136
Fe 8.69897 14.4324 11.4126
Fe 10.2604 15.7619 12.7661
Fe 11.4894 14.2553 11.3657
Fe 12.8766 15.6992 12.7397
Fe 14.3497 14.2138 11.3564
Fe 15.5811 15.7375 12.8144
O 9.56166 5.5343 38.8141
O 13.118 12.6275 25.607
O 6.9971 10.4383 33.8922
O 13.2156 1.7391 27.1446
O 6.34019 9.39839 23.2813
O 14.4914 3.59184 21.0103
O 13.7717 13.6865 39.4903
O 6.39297 15.3684 39.7585
O 3.64144 11.57 34.4171
O 16.6853 10.1365 31.9225
O 3.08358 0.208159 30.9688
O 4.75936 10.3581 20.9284
O 10.6351 3.96398 34.3559
O 9.73514 14.4188 30.9677
O 5.55622 8.78145 40.8263
O 3.11072 1.29525 39.3984
O 2.36539 7.98536 34.9924
O 6.26825 2.52293 25.69
O 0.826282 6.35488 30.0978
O 1.78518 1.07837 18.3913
O 4.17873 11.4263 25.5807
O 10.4064 9.04719 27.4309
O 9.55449 0.385326 19.8135
O 15.7382 2.0373 32.9443
O 9.03084 7.64649 19.6056
O 3.12255 8.5676 24.1693
O 3.91946 15.7948 34.9383
O 13.5102 15.8693 29.4591
O 16.4064 5.43821 39.6629
O 3.3488 2.85407 25.4238
O 8.00607 5.1431 23.0156
391
 Atoms. Timestep: 800
Fe 0 0 0
Fe 1.433 1.433 1.433
Fe 2.866 0 0
Fe 4.299 1.433 1.433
Fe 5.732 0 0
Fe 7.165 1.433 1.433
Fe 8.598 0 0
Fe 10.031 1.433 1.433
Fe 11.464 0 0
Fe 12.897 1.433 1.433
Fe 14.33 0 0
Fe 15.763 1.433 1.433
Fe 0 2.866 0
Fe 1.433 4.299 1.433
Fe 2.866 2.866 0
Fe 4.299 4.299 1.433
Fe 5.732 2.866 0
Fe 7.165 4.299 1.433
Fe 8.598 2.866 0
Fe 10.031 4.299 1.433
Fe 11.464 2.866 0
Fe 12.897 4.299 1.433
Fe 14.33 2.866 0
Fe 15.763 4.299 1.433
Fe 0 5.732 0
Fe 1.433 7.165 1.433
Fe 2.866 5.732 0
Fe 4.299 7.165 1.433
Fe 5.732 5.732 0
Fe 7.165 7.165 1.433
Fe 8.598 5.732 0
Fe 10.031 7.165 1.433
Fe 11.464 5.732 0
Fe 12.897 7.165 1.433
Fe 14.33 5.732 0
Fe 15.763 7.165 1.433
Fe 0 8.598 0
Fe 1.433 10.031 1.433
Fe 2.866 8.598 0
Fe 4.299 10.031 1.433
Fe 5.732 8.598 0
Fe 7.165 10.031 1.433
Fe 8.598 8.598 0
Fe 10.031 10.031 1.433
Fe 11.464 8.598 0
Fe 12.897 10.031 1.433
Fe 14.33 8.598 0
Fe 15.763 10.031 1.433
Fe 0 11.464 0
Fe 1.433 12.897 1.433
Fe 2.866 11.464 0
Fe 4.299 12.897 1.433
Fe 5.732 11.464 0
Fe 7.165 12.897 1.433
Fe 8.598 11.464 0
Fe 10.031 12.897 1.433
Fe 11.464 11.464 0
Fe 12.897 12.897 1.433
Fe 14.33 11.464 0
Fe 15.763 12.897 1.433
Fe 0 14.33 0
Fe 1.433 15.763 1.433
Fe 2.866 14.33 0
Fe 4.299 15.763 1.433
Fe 5.732 14.33 0
Fe 7.165 15.763 1.433
Fe 8.598 14.33 0
Fe 10.031 15.763 1.433
Fe 11.464 14.33 0
Fe 12.897 15.763 1.433
Fe 14.33 14.33 0
Fe 15.763 15.763 1.433
Fe 0 0 2.866
Fe 1.37613 1.4058 4.28794
Fe 2.866 0 2.866
Fe 4.26398 1.43285 4.19195
Fe 5.732 0 2.866
Fe 7.06678 1.5355 4.26998
Fe 8.598 0 2.866
Fe 9.98264 1.45758 4.23479
Fe 11.464 0 2.866
Fe 12.7529 1.29944 4.27572
Fe 14.33 0 2.866
Fe 15.7442 1.40886 4.24178
Fe 0 2.866 2.866
Fe 1.34144 4.28997 4.21052
Fe 2.866 2.866 2.866
Fe 4.2692 4.36331 4.16758
Fe 5.732 2.866 2.866
Fe 7.20632 4.34683 4.3285
Fe 8.598 2.866 2.866
Fe 10.0477 4.23138 4.25555
Fe 11.464 2.866 2.866
Fe 12.9271 4.37667 4.19099
Fe 14.33 2.866 2.866
Fe 15.6778 4.23304 4.2737
Fe 0 5.732 2.866
Fe 1.45707 7.17993 4.28715
Fe 2.866 5.732 2.866
Fe 4.29238 7.25267 4.17787
Fe 5.732 5.732 2.866
Fe 7.09625 7.26904 4.13457
Fe 8.598 5.732 2.866
Fe 9.92282 7.15916 4.29241
Fe 11.464 5.732 2.866
Fe 12.893 7.23281 4.17377
Fe 14.33 5.732 2.866
Fe 15.7179 7.2206 4.20285
Fe 0 8.598 2.866
Fe 1.4255 10.1172 4.33305
Fe 2.866 8.598 2.866
Fe 4.27665 10.0198 4.15823
Fe 5.732 8.598 2.866
Fe 7.21881 9.91671 4.31239
Fe 8.598 8.598 2.866
Fe 9.98302 9.99953 4.20765
Fe 11.464 8.598 2.866
Fe 12.9081 10.0265 4.21139
Fe 14.33 8.598 2.866
Fe 15.7807 9.96591 4.32815
Fe 0 11.464 2.866
Fe 1.35671 13.0897 4.28529
Fe 2.866 11.464 2.866
Fe 4.22545 12.7662 4.19032
Fe 5.732 11.464 2.866
Fe 7.21852 12.8206 4.18949
Fe 8.598 11.464 2.866
Fe 9.94791 12.806 4.20264
Fe 11.464 11.464 2.866
Fe 12.8314 12.887 4.2259
Fe 14.33 11.464 2.866
Fe 15.7583 12.9209 4.20867
Fe 0 14.33 2.866
Fe 1.47638 15.8686 4.16187
Fe 2.866 14.33 2.866
Fe 4.29607 15.7276 4.35837
Fe 5.732 14.33 2.866
Fe 7.29097 15.7859 4.24779
Fe 8.598 14.33 2.866
Fe 10.0465 15.7535 4.29466
Fe 11.464 14.33 2.866
Fe 12.9502 15.6893 4.25177
Fe 14.33 14.33 2.866
Fe 15.8319 15.7646 4.16221
Fe 0.0328424 0.0458324 5.6498
Fe 1.48858 1.50211 7.20942
Fe 3.02516 0.0130124 5.7754
Fe 4.20255 1.42694 7.29159
Fe 5.6682 0.00285758 5.64028
Fe 7.07153 1.45434 7.21229
Fe 8.44169 17.1017 5.71989
Fe 9.9192 1.40156 6.94607
Fe 11.4054 17.1893 5.64962
Fe 12.9652 1.43887 7.05303
Fe 14.5704 17.0421 5.69854
Fe 15.8798 1.42701 6.94609
Fe 0.0621377 2.95636 5.71157
Fe 1.4713 4.36575 7.06914
Fe 2.77712 2.7934 5.59638
Fe 4.25901 4.17073 7.20553
Fe 5.65545 2.94526 5.70102
Fe 7.01231 4.36378 7.19637
Fe 8.61075 2.89035 5.67295
Fe 9.88176 4.36094 6.94193
Fe 11.3733 2.80657 5.67144
Fe 12.8719 4.25114 7.05539
Fe 14.3283 2.70551 5.50369
Fe 15.6888 4.30001 7.01101
Fe 17.1591 5.81237 5.66098
Fe 1.4896 7.30674 7.08646
Fe 2.8928 5.77132 5.70317
Fe 4.37912 7.20378 7.09674
Fe 5.55142 5.76427 5.75762
Fe 7.14354 7.13695 7.10068
Fe 8.55828 5.72018 5.65119
Fe 10.0554 7.2527 7.23267
Fe 11.4894 5.72131 5.62111
Fe 12.9155 7.12871 7.00461
Fe 14.3169 5.77732 5.69652
Fe 15.8755 7.08365 7.08027
Fe 0.022503 8.56271 5.72221
Fe 1.37645 10.1923 7.09803
Fe 2.77119 8.47898 5.70505
Fe 4.26009 10.1165 7.13012
Fe 5.647 8.65536 5.72642
Fe 7.09761 10.0342 7.07935
Fe 8.52224 8.59787 5.74467
Fe 9.92419 10.108 6.98735
Fe 11.4659 8.64928 5.55777
Fe 12.797 10.0555 6.88276
Fe 14.3078 8.6576 5.68074
Fe 15.7736 10.0859 7.04828
Fe 17.163 11.4241 5.65881
Fe 1.49347 12.95 7.10405
Fe 2.85687 11.4628 5.61469
Fe 4.37838 12.8554 7.05238
Fe 5.70748 11.4499 5.59913
Fe 7.24318 12.7939 7.07059
Fe 8.59092 11.3462 5.71468
Fe 9.97405 12.7641 7.01906
Fe 11.4606 11.3351 5.6947
Fe 12.8748 12.8878 7.06141
Fe 14.404 11.3715 5.50179
Fe 15.7831 12.8134 6.88058
Fe 0.0550321 14.4061 5.61931
Fe 1.47703 15.7162 7.1475
Fe 2.89291 14.3285 5.53959
Fe 4.24606 15.7225 7.19893
Fe 5.73923 14.207 5.60621
Fe 7.19491 15.6136 7.20958
Fe 8.63459 14.3304 5.80216
Fe 9.93868 15.7451 7.01973
Fe 11.329 14.3329 5.52469
Fe 12.8938 15.6548 7.06617
Fe 14.2944 14.1955 5.64865
Fe 15.912 15.7498 7.01189
Fe 0.0810389 17.1065 8.46838
Fe 1.44448 1.44603 9.85593
Fe 2.73315 0.0206521 8.58144
Fe 4.2859 1.35147 10.0391
Fe 5.64126 17.0973 8.58765
Fe 7.20164 1.64616 10.0085
Fe 8.56081 0.10157 8.67099
Fe 9.91895 1.47649 9.8793
Fe 11.2954 0.00467312 8.38893
Fe 12.8197 1.30038 9.88472
Fe 14.3179 0.101728 8.51936
Fe 15.7161 1.48677 9.81703
Fe 0.0518286 2.87859 8.47127
Fe 1.5065 4.32722 10.0273
Fe 2.74646 2.95281 8.63187
Fe 4.33688 4.2849 10.1291
Fe 5.63424 2.88552 8.67697
Fe 7.12374 4.27216 9.96853
Fe 8.59763 2.92283 8.52114
Fe 9.96913 4.35154 9.89099
Fe 11.3517 2.83795 8.34954
Fe 12.8035 4.31818 9.72396
Fe 14.4122 2.92722 8.47848
Fe 15.7407 4.33578 9.92633
Fe 0.0421925 5.80893 8.60896
Fe 1.4726 7.21164 9.93628
Fe 2.8559 5.76646 8.46485
Fe 4.24629 7.08871 10.0071
Fe 5.76717 5.76172 8.56095
Fe 7.18168 7.11308 9.97054
Fe 8.61907 5.9076 8.50472
Fe 10.0953 7.15954 9.907
Fe 11.495 5.7415 8.50002
Fe 13.0371 7.18347 9.92404
Fe 14.2127 5.67838 8.35349
Fe 15.7803 7.10957 9.7691
Fe 17.1394 8.65836 8.49896
Fe 1.49258 10.0239 9.99004
Fe 3.04396 8.67611 8.52689
Fe 4.30239 10.1503 10.016
Fe 5.71584 8.58814 8.57899
Fe 7.10408 10.0892 10.0683
Fe 8.59996 8.71048 8.50218
Fe 10.0563 10.1241 10.0103
Fe 11.5131 8.63583 8.47186
Fe 12.9689 10.1735 9.9282
Fe 14.4339 8.6621 8.58933
Fe 15.8149 9.91945 9.8655
Fe 0.105617 11.4744 8.49292
Fe 1.43097 12.8557 9.93556
Fe 2.98092 11.5721 8.58924
Fe 4.37005 12.9124 10.0293
Fe 5.62795 11.4443 8.55857
Fe 7.10604 12.95 10.054
Fe 8.58952 11.4377 8.56571
Fe 9.97226 12.9177 9.97807
Fe 11.3975 11.4332 8.3846
Fe 12.9354 12.8792 9.83659
Fe 14.2736 11.5765 8.52001
Fe 15.7116 12.9423 9.78521
Fe 0.0342217 14.1883 8.55554
Fe 1.45322 15.6614 9.89507
Fe 2.92047 14.3319 8.54558
Fe 4.36588 15.7114 9.91366
Fe 5.71838 14.196 8.45347
Fe 7.26037 15.8178 9.98536
Fe 8.64527 14.3876 8.50806
Fe 10.0592 15.8053 9.87313
Fe 11.5984 14.2243 8.57484
Fe 12.9339 15.7977 9.8863
Fe 14.4454 14.3091 8.41806
Fe 15.5936 15.7342 9.87456
Fe 17.2062 17.175 11.0704
Fe 1.28001 1.25989 12.7516
Fe 2.80126 -0.0289877 11.3587
Fe 4.16109 1.48829 12.8777
Fe 5.84971 0.112033 11.2405
Fe 7.06972 1.60797 12.8843
Fe 8.57844 0.206292 11.2977
Fe 10.0939 1.31578 12.8967
Fe 11.4395 17.1593 11.1786
Fe 12.9531 1.47004 12.9042
Fe 14.2256 0.0950676 11.2058
Fe 15.7354 1.45407 12.6882
Fe 0.160409 2.87704 11.2774
Fe 1.39416 4.52992 12.9534
Fe 2.68197 2.85974 11.4541
Fe 4.27769 4.29104 12.853
Fe 5.71098 2.80043 11.3202
Fe 7.12977 4.37281 12.6996
Fe 8.62993 2.91783 11.3982
Fe 10.1675 4.15879 12.7734
Fe 11.374 2.67121 11.2334
Fe 12.9538 4.22288 12.5402
Fe 14.197 2.84048 11.0028
Fe 15.7824 4.32099 12.7096
Fe 0.0545685 5.70513 11.135
Fe 1.30495 7.25401 12.6906
Fe 2.80995 5.7441 11.316
Fe 4.18625 7.20581 12.8921
Fe 5.75098 5.79517 11.3316
Fe 7.24936 7.00874 12.9386
Fe 8.70817 5.61641 11.3935
Fe 10.0661 7.07175 12.7036
Fe 11.4626 5.58637 11.0327
Fe 12.6628 7.17267 12.6709
Fe 14.3444 5.72373 11.2412
Fe 15.6748 7.20058 12.862
Fe 17.1027 8.57803 11.1339
Fe 1.4058 9.95038 12.7032
Fe 2.9944 8.5499 11.2376
Fe 4.39929 9.97368 12.85
Fe 5.65348 8.53191 11.3104
Fe 7.13372 10.2062 12.8655
Fe 8.4704 8.65517 11.2763
Fe 10.0034 9.9927 12.7271
Fe 11.4046 8.53769 11.059
Fe 12.9071 9.97091 12.7499
Fe 14.3491 8.62785 11.1805
Fe 15.7218 9.95022 12.6841
Fe 0.0155808 11.5014 11.126
Fe 1.32227 12.8379 12.8871
Fe 2.77511 11.5133 11.4001
Fe 4.21966 13.0148 13.0801
Fe 5.72815 11.5654 11.4907
Fe 7.25936 13.0026 12.8455
Fe 8.51386 11.4339 11.1873
Fe 10.1373 12.7241 12.6056
Fe 11.5993 11.4203 11.1452
Fe 12.8992 12.8043 12.6369
Fe 14.4654 11.4739 11.0531
Fe 15.7039 12.9094 12.6757
Fe 17.0481 14.4481 11.1497
Fe 1.40943 15.7838 12.7405
Fe 2.86912 14.3027 11.3811
Fe 4.32689 15.9455 12.7268
Fe 5.65049 14.362 11.2754
Fe 7.19862 15.9215 12.7117
Fe 8.54321 14.4284 11.3195
Fe 10.2841 15.6643 12.7213
Fe 11.4234 14.3704 11.2287
Fe 12.8564 15.8102 12.8292
Fe 14.3511 14.2395 11.2184
Fe 15.577 15.8515 12.805
O 9.43879 5.27281 38.7013
O 12.9135 12.6929 25.8011
O 6.75895 10.3513 33.8855
O 13.2135 1.63251 26.9335
O 6.48355 9.25038 23.1751
O 14.9666 3.40614 20.7405
O 13.7921 13.774 39.8695
O 6.1196 15.6386 40.0496
O 3.63051 11.6768 34.6316
O 17.0055 10.3605 31.9314
O 2.79375 -0.0335181 30.8637
O 4.62304 10.2585 20.7596
O 10.9438 4.15993 33.924
O 9.64742 14.2331 31.3377
O 5.80756 8.46201 41.1608
O 3.14795 1.04995 39.4732
O 1.95685 8.23022 34.962
O 6.23562 2.51627 25.8573
O 0.534578 6.31428 30.1211
O 1.60089 0.935661 17.948
O 4.43096 11.3328 25.6661
O 10.619 9.42045 27.0532
O 9.31493 0.699163 19.6119
O 16.0634 1.99853 32.6228
O 8.91793 7.3607 19.347
O 3.24289 8.69784 24.2929
O 4.16321 15.9441 34.6448
O 13.2899 15.8783 29.1799
O 16.5278 5.22907 39.6704
O 3.4491 2.99549 25.2221
O 8.26947 5.03028 23.2798
391
 Atoms. Timestep: 900
Fe 0 0 0
Fe 1.433 1.433 1.433
Fe 2.866 0 0
Fe 4.299 1.433 1.433
Fe 5.732 0 0
Fe 7.165 1.433 1.433
Fe 8.598 0 0
Fe 10.031 1.433 1.433
Fe 11.464 0 0
Fe 12.897 1.433 1.433
Fe 14.33 0 0
Fe 15.763 1.433 1.433
Fe 0 2.866 0
Fe 1.433 4.299 1.433
Fe 2.866 2.866 0
Fe 4.299 4.299 1.433
Fe 5.732 2.866 0
Fe 7.165 4.299 1.433
Fe 8.598 2.866 0
Fe 10.031 4.299 1.433
Fe 11.464 2.866 0
Fe 12.897 4.299 1.433
Fe 14.33 2.866 0
Fe 15.763 4.299 1.433
Fe 0 5.732 0
Fe 1.433 7.165 1.433
Fe 2.866 5.732 0
Fe 4.299 7.165 1.433
Fe 5.732 5.732 0
Fe 7.165 7.165 1.433
Fe 8.598 5.732 0
Fe 10.031 7.165 1.433
Fe 11.464 5.732 0
Fe 12.897 7.165 1.433
Fe 14.33 5.732 0
Fe 15.763 7.165 1.433
Fe 0 8.598 0
Fe 1.433 10.031 1.433
Fe 2.866 8.598 0
Fe 4.299 10.031 1.433
Fe 5.732 8.598 0
Fe 7.165 10.031 1.433
Fe 8.598 8.598 0
Fe 10.031 10.031 1.433
Fe 11.464 8.598 0
Fe 12.897 10.031 1.433
Fe 14.33 8.598 0
Fe 15.763 10.031 1.433
Fe 0 11.464 0
Fe 1.433 12.897 1.433
Fe 2.866 11.464 0
Fe 4.299 12.897 1.433
Fe 5.732 11.464 0
Fe 7.165 12.897 1.433
Fe 8.598 11.464 0
Fe 10.031 12.897 1.433
Fe 11.464 11.464 0
Fe 12.897 12.897 1.433
Fe 14.33 11.464 0
Fe 15.763 12.897 1.433
Fe 0 14.33 0
Fe 1.433 15.763 1.433
Fe 2.866 14.33 0
Fe 4.299 15.763 1.433
Fe 5.732 14.33 0
Fe 7.165 15.763 1.433
Fe 8.598 14.33 0
Fe 10.031 15.763 1.433
Fe 11.464 14.33 0
Fe 12.897 15.763 1.433
Fe 14.33 14.33 0
Fe 15.763 15.763 1.433
Fe 0 0 2.866
Fe 1.41365 1.38117 4.30697
Fe 2.866 0 2.866
Fe 4.32347 1.43427 4.29318
Fe 5.732 0 2.866
Fe 7.11705 1.54755 4.30932
Fe 8.598 0 2.866
Fe 9.92531 1.42442 4.24464
Fe 11.464 0 2.866
Fe 12.8545 1.35364 4.25755
Fe 14.33 0 2.866
Fe 15.7228 1.38105 4.21997
Fe 0 2.866 2.866
Fe 1.41444 4.17093 4.25783
Fe 2.866 2.866 2.866
Fe 4.27053 4.30372 4.16589
Fe 5.732 2.866 2.866
Fe 7.20702 4.34877 4.29489
Fe 8.598 2.866 2.866
Fe 10.0364 4.2432 4.1801
Fe 11.464 2.866 2.866
Fe 12.869 4.33613 4.2613
Fe 14.33 2.866 2.866
Fe 15.7746 4.23158 4.29943
Fe 0 5.732 2.866
Fe 1.51548 7.13098 4.24266
Fe 2.866 5.732 2.866
Fe 4.26771 7.25699 4.14228
Fe 5.732 5.732 2.866
Fe 7.00968 7.29789 4.19291
Fe 8.598 5.732 2.866
Fe 9.96963 7.19573 4.22478
Fe 11.464 5.732 2.866
Fe 12.8747 7.22925 4.24129
Fe 14.33 5.732 2.866
Fe 15.7698 7.17683 4.28304
Fe 0 8.598 2.866
Fe 1.46891 10.0878 4.34595
Fe 2.866 8.598 2.866
Fe 4.25343 9.91369 4.23137
Fe 5.732 8.598 2.866
Fe 7.20268 10.0465 4.17608
Fe 8.598 8.598 2.866
Fe 9.98203 9.99128 4.19507
Fe 11.464 8.598 2.866
Fe 13.0649 10.0697 4.20435
Fe 14.33 8.598 2.866
Fe 15.8057 9.97253 4.34851
Fe 0 11.464 2.866
Fe 1.35638 12.9648 4.35799
Fe 2.866 11.464 2.866
Fe 4.19873 12.7591 4.17046
Fe 5.732 11.464 2.866
Fe 7.17648 12.7814 4.16553
Fe 8.598 11.464 2.866
Fe 10.0069 12.858 4.17427
Fe 11.464 11.464 2.866
Fe 12.9218 12.8787 4.24206
Fe 14.33 11.464 2.866
Fe 15.6693 12.9485 4.15432
Fe 0 14.33 2.866
Fe 1.54912 15.8812 4.33895
Fe 2.866 14.33 2.866
Fe 4.23643 15.6558 4.23591
Fe 5.732 14.33 2.866
Fe 7.19297 15.8215 4.21724
Fe 8.598 14.33 2.866
Fe 10.09 15.8059 4.18009
Fe 11.464 14.33 2.866
Fe 12.834 15.7227 4.29239
Fe 14.33 14.33 2.866
Fe 15.8091 15.718 4.15688
Fe 0.0457794 0.0559902 5.6871
Fe 1.52403 1.40774 7.1033
Fe 2.93513 0.0432299 5.72915
Fe 4.3109 1.52005 7.18485
Fe 5.68941 -0.0456005 5.68668
Fe 7.06216 1.47316 7.17855
Fe 8.43446 17.1156 5.73536
Fe 9.91438 1.30428 6.9395
Fe 11.4801 17.2204 5.62773
Fe 13.0011 1.45112 7.0347
Fe 14.4249 17.041 5.6078
Fe 15.8289 1.49556 7.04251
Fe -0.00804158 2.91838 5.77159
Fe 1.43658 4.31721 7.02458
Fe 2.79724 2.89052 5.70599
Fe 4.2681 4.21112 7.1756
Fe 5.64139 3.01411 5.71494
Fe 7.11124 4.2782 7.16286
Fe 8.59041 2.90869 5.6689
Fe 9.93876 4.48672 7.09374
Fe 11.3585 2.83384 5.5975
Fe 12.8849 4.26214 6.9487
Fe 14.2843 2.76478 5.58481
Fe 15.7458 4.26853 7.07567
Fe 17.1918 5.88392 5.7374
Fe 1.44757 7.33726 7.07644
Fe 2.86691 5.78326 5.83587
Fe 4.4338 7.20618 7.11668
Fe 5.62655 5.73763 5.67708
Fe 7.10695 7.20525 7.04127
Fe 8.55139 5.76859 5.63899
Fe 10.0753 7.19224 7.14608
Fe 11.4026 5.76014 5.60765
Fe 12.8452 7.1986 6.9845
Fe 14.2795 5.82429 5.68201
Fe 15.8121 7.15848 7.03253
Fe 0.0183194 8.59201 5.62649
Fe 1.43374 10.129 7.04104
Fe 2.84052 8.48425 5.75627
Fe 4.22662 10.0671 7.02349
Fe 5.63597 8.6674 5.72446
Fe 7.0556 10.0963 7.08407
Fe 8.53611 8.47866 5.70613
Fe 9.95322 9.91697 6.95452
Fe 11.4249 8.67408 5.62473
Fe 12.9671 10.061 7.05969
Fe 14.371 8.59408 5.79837
Fe 15.7398 10.03 7.0329
Fe 17.2453 11.4769 5.61729
Fe 1.52455 12.8751 7.04187
Fe 2.9323 11.4583 5.6672
Fe 4.35128 12.8901 7.0765
Fe 5.58341 11.489 5.52316
Fe 7.26573 12.7983 7.06056
Fe 8.52472 11.4518 5.70141
Fe 10.0362 12.8597 7.0133
Fe 11.4672 11.4762 5.65918
Fe 12.9118 12.9274 7.06306
Fe 14.4182 11.5127 5.59141
Fe 15.8319 12.8622 6.97871
Fe -0.00879375 14.4294 5.70051
Fe 1.4784 15.7299 7.09944
Fe 2.91285 14.3045 5.62391
Fe 4.31313 15.623 7.13259
Fe 5.70229 14.2363 5.55328
Fe 7.14635 15.668 7.15307
Fe 8.63936 14.3415 5.68633
Fe 10.0494 15.7495 7.09185
Fe 11.389 14.2983 5.55717
Fe 12.834 15.7484 7.06095
Fe 14.2859 14.275 5.70972
Fe 15.7161 15.7349 7.12046
Fe -0.0202243 17.096 8.38606
Fe 1.44323 1.41102 9.86821
Fe 2.76122 0.0188093 8.55408
Fe 4.30173 1.45613 9.96215
Fe 5.67443 17.1387 8.5077
Fe 7.1841 1.57844 9.95519
Fe 8.59832 0.0231353 8.64004
Fe 9.98351 1.50447 9.9296
Fe 11.3753 -0.0320195 8.37271
Fe 12.7875 1.32774 9.84556
Fe 14.3759 0.0864342 8.36742
Fe 15.716 1.40343 9.75857
Fe 0.0634654 2.82873 8.56418
Fe 1.52666 4.38877 9.91749
Fe 2.85613 2.97792 8.61974
Fe 4.3249 4.28327 10.0248
Fe 5.67262 2.924 8.62595
Fe 7.06878 4.28534 9.89327
Fe 8.59792 2.88477 8.43268
Fe 9.9675 4.25911 9.82793
Fe 11.3069 2.83961 8.35381
Fe 12.8324 4.23731 9.69678
Fe 14.3478 2.90626 8.47749
Fe 15.8054 4.38083 9.80833
Fe 0.0700838 5.76766 8.52861
Fe 1.37934 7.21395 9.88824
Fe 2.82662 5.83079 8.46941
Fe 4.22777 7.06101 9.85564
Fe 5.68678 5.64784 8.47964
Fe 7.08414 7.07993 9.85238
Fe 8.48621 5.84693 8.51363
Fe 10.1129 7.18854 9.9624
Fe 11.5016 5.72245 8.50284
Fe 12.9304 7.17503 9.85334
Fe 14.2431 5.80332 8.46075
Fe 15.7966 7.09878 9.81006
Fe 17.1865 8.60755 8.45195
Fe 1.42211 10.0146 9.81991
Fe 2.8183 8.67909 8.45114
Fe 4.2443 10.0971 10.0228
Fe 5.7662 8.58878 8.53816
Fe 7.09221 10.1629 9.97301
Fe 8.66772 8.70328 8.57592
Fe 10.0843 10.0405 9.89719
Fe 11.5858 8.69595 8.45902
Fe 12.9604 10.1769 9.90876
Fe 14.3078 8.57853 8.52817
Fe 15.8513 10.0438 9.83027
Fe 0.00496764 11.4747 8.52831
Fe 1.44762 12.8435 9.9276
Fe 2.95831 11.5907 8.57558
Fe 4.32393 12.9707 9.94429
Fe 5.63891 11.423 8.47614
Fe 7.07741 13.01 9.92937
Fe 8.587 11.3857 8.51687
Fe 10.0295 12.8745 9.95835
Fe 11.3511 11.4139 8.4685
Fe 12.892 12.9892 9.79456
Fe 14.3896 11.5524 8.52702
Fe 15.7439 12.9689 9.78709
Fe 0.0698111 14.2434 8.51856
Fe 1.33398 15.6678 9.8538
Fe 2.87067 14.3037 8.56391
Fe 4.28822 15.7834 9.87615
Fe 5.75836 14.2967 8.44523
Fe 7.25668 15.8355 9.89864
Fe 8.65334 14.2934 8.61273
Fe 10.0944 15.6934 9.8353
Fe 11.4852 14.2492 8.45205
Fe 12.9234 15.7761 9.83541
Fe 14.5272 14.4799 8.37609
Fe 15.5433 15.8134 9.81688
Fe 17.2366 17.2092 11.0847
Fe 1.36191 1.27675 12.7538
Fe 2.82051 -0.137607 11.2802
Fe 4.14789 1.45029 12.8243
Fe 5.87688 0.125231 11.2125
Fe 7.11474 1.54828 12.8119
Fe 8.59816 0.105036 11.1901
Fe 10.1254 1.39556 12.9892
Fe 11.4104 17.179 11.1431
Fe 12.8888 1.43673 12.8157
Fe 14.3101 0.0663974 11.1408
Fe 15.7235 1.52467 12.68
Fe 0.0696356 2.75326 11.3027
Fe 1.38447 4.51564 12.8205
Fe 2.76265 2.89442 11.3566
Fe 4.37469 4.21898 12.8402
Fe 5.8041 2.85065 11.3494
Fe 7.22438 4.24585 12.7768
Fe 8.53418 2.93823 11.3313
Fe 10.2031 4.19869 12.8385
Fe 11.4242 2.67616 11.2619
Fe 12.8956 4.18713 12.5619
Fe 14.1755 2.90764 11.0274
Fe 15.7045 4.35586 12.6823
Fe 0.0257344 5.6709 11.2053
Fe 1.28527 7.20011 12.6378
Fe 2.87812 5.73495 11.2949
Fe 4.27149 7.2091 12.7932
Fe 5.67516 5.75259 11.3217
Fe 7.24348 7.12098 12.8335
Fe 8.63381 5.6463 11.2277
Fe 10.0825 7.13749 12.7893
Fe 11.4788 5.59996 11.0704
Fe 12.6971 7.22429 12.6227
Fe 14.3371 5.75362 11.258
Fe 15.7897 7.15386 12.7549
Fe 17.2481 8.52428 11.1937
Fe 1.4449 9.94931 12.5696
Fe 2.96432 8.50801 11.1868
Fe 4.22891 9.95645 12.9238
Fe 5.67199 8.47616 11.2321
Fe 7.09389 10.1432 12.8946
Fe 8.44203 8.60632 11.3023
Fe 10.0616 10.0113 12.6945
Fe 11.3615 8.55787 11.1047
Fe 12.835 9.899 12.7682
Fe 14.3189 8.51435 11.1681
Fe 15.792 9.99835 12.6563
Fe -0.0056109 11.549 11.1417
Fe 1.30606 12.8253 12.8032
Fe 2.82899 11.5186 11.3627
Fe 4.24952 13.0034 12.9604
Fe 5.65149 11.5446 11.3917
Fe 7.3509 13.0145 12.8907
Fe 8.53101 11.5496 11.1322
Fe 10.0811 12.7538 12.6817
Fe 11.6019 11.3862 11.1196
Fe 12.8575 12.8201 12.6275
Fe 14.5232 11.5079 11.1571
Fe 15.6605 12.7903 12.7023
Fe 17.0977 14.3615 11.1461
Fe 1.37336 15.767 12.7387
Fe 2.85015 14.2851 11.3633
Fe 4.31133 15.9062 12.7047
Fe 5.68856 14.392 11.2482
Fe 7.23689 15.8945 12.7682
Fe 8.47733 14.3893 11.238
Fe 10.1344 15.6248 12.7084
Fe 11.455 14.4144 11.0862
Fe 12.8883 15.8842 12.8568
Fe 14.2633 14.3634 11.1144
Fe 15.6546 15.9483 12.7336
O 9.32481 5.01586 38.6011
O 12.7302 12.7588 25.9649
O 6.57549 10.2444 33.8693
O 13.2105 1.55741 26.7066
O 6.69986 9.09157 23.1006
O 15.4277 3.23711 20.4791
O 13.8118 13.8572 40.2379
O 5.87719 15.8863 40.3485
O 3.59302 11.8037 34.8523
O 17.2948 10.5924 31.9328
O 2.51841 -0.26942 30.7481
O 4.445 10.1978 20.5153
O 11.2361 4.35187 33.4973
O 9.5587 14.0552 31.7068
O 6.04793 8.1586 41.5025
O 3.16794 0.824552 39.5519
O 1.5554 8.44303 34.9489
O 6.32743 2.47484 26.0599
O 0.251388 6.27229 30.1312
O 1.43146 0.788704 17.4766
O 4.68679 11.3218 25.8007
O 10.8244 9.76121 26.6961
O 9.08095 0.983559 19.3964
O 16.3745 1.95858 32.3249
O 8.82137 7.09099 19.0613
O 3.28399 8.76176 24.4043
O 4.40458 16.1001 34.3662
O 13.0827 15.8716 28.9249
O 16.6367 5.0304 39.6883
O 3.41358 3.1449 24.9966
O 8.53753 4.91875 23.5363
391
 Atoms. Timestep: 1000
Fe 0 0 0
Fe 1.433 1.433 1.433
Fe 2.866 0 0
Fe 4.299 1.433 1.433
Fe 5.732 0 0
Fe 7.165 1.433 1.433
Fe 8.598 0 0
Fe 10.031 1.433 1.433
Fe 11.464 0 0
Fe 12.897 1.433 1.433
Fe 14.33 0 0
Fe 15.763 1.433 1.433
Fe 0 2.866 0
Fe 1.433 4.299 1.433
Fe 2.866 2.866 0
Fe 4.299 4.299 1.433
Fe 5.732 2.866 0
Fe 7.165 4.299 1.433
Fe 8.598 2.866 0
Fe 10.031 4.299 1.433
Fe 11.464 2.866 0
Fe 12.897 4.299 1.433
Fe 14.33 2.866 0
Fe 15.763 4.299 1.433
Fe 0 5.732 0
Fe 1.433 7.165 1.433
Fe 2.866 5.732 0
Fe 4.299 7.165 1.433
Fe 5.732 5.732 0
Fe 7.165 7.165 1.433
Fe 8.598 5.732 0
Fe 10.031 7.165 1.433
Fe 11.464 5.732 0
Fe 12.897 7.165 1.433
Fe 14.33 5.732 0
Fe 15.763 7.165 1.433
Fe 0 8.598 0
Fe 1.433 10.031 1.433
Fe 2.866 8.598 0
Fe 4.299 10.031 1.433
Fe 5.732 8.598 0
Fe 7.165 10.031 1.433
Fe 8.598 8.598 0
Fe 10.031 10.031 1.433
Fe 11.464 8.598 0
Fe 12.897 10.031 1.433
Fe 14.33 8.598 0
Fe 15.763 10.031 1.433
Fe 0 11.464 0
Fe 1.433 12.897 1.433
Fe 2.866 11.464 0
Fe 4.299 12.897 1.433
Fe 5.732 11.464 0
Fe 7.165 12.897 1.433
Fe 8.598 11.464 0
Fe 10.031 12.897 1.433
Fe 11.464 11.464 0
Fe 12.897 12.897 1.433
Fe 14.33 11.464 0
Fe 15.763 12.897 1.433
Fe 0 14.33 0
Fe 1.433 15.763 1.433
Fe 2.866 14.33 0
Fe 4.299 15.763 1.433
Fe 5.732 14.33 0
Fe 7.165 15.763 1.433
Fe 8.598 14.33 0
Fe 10.031 15.763 1.433
Fe 11.464 14.33 0
Fe 12.897 15.763 1.433
Fe 14.33 14.33 0
Fe 15.763 15.763 1.433
Fe 0 0 2.866
Fe 1.47285 1.42337 4.29773
Fe 2.866 0 2.866
Fe 4.35273 1.44787 4.39396
Fe 5.732 0 2.866
Fe 7.17533 1.4745 4.3571
Fe 8.598 0 2.866
Fe 9.90839 1.36077 4.2607
Fe 11.464 0 2.866
Fe 12.987 1.45791 4.23031
Fe 14.33 0 2.866
Fe 15.7615 1.38975 4.24026
Fe 0 2.866 2.866
Fe 1.49407 4.20488 4.3343
Fe 2.866 2.866 2.866
Fe 4.25735 4.26337 4.27332
Fe 5.732 2.866 2.866
Fe 7.13969 4.33903 4.24035
Fe 8.598 2.866 2.866
Fe 9.99548 4.33223 4.17402
Fe 11.464 2.866 2.866
Fe 12.8357 4.26042 4.32384
Fe 14.33 2.866 2.866
Fe 15.8581 4.31167 4.32871
Fe 0 5.732 2.866
Fe 1.50384 7.09578 4.21367
Fe 2.866 5.732 2.866
Fe 4.25288 7.15115 4.23683
Fe 5.732 5.732 2.866
Fe 7.02067 7.21109 4.32647
Fe 8.598 5.732 2.866
Fe 10.0496 7.20979 4.18915
Fe 11.464 5.732 2.866
Fe 12.8747 7.20242 4.32361
Fe 14.33 5.732 2.866
Fe 15.8082 7.11665 4.33045
Fe 0 8.598 2.866
Fe 1.51219 9.99301 4.28095
Fe 2.866 8.598 2.866
Fe 4.24078 9.88805 4.30925
Fe 5.732 8.598 2.866
Fe 7.1272 10.1428 4.14173
Fe 8.598 8.598 2.866
Fe 10.0066 10.0263 4.2434
Fe 11.464 8.598 2.866
Fe 13.0863 10.0725 4.27095
Fe 14.33 8.598 2.866
Fe 15.814 10.0304 4.27341
Fe 0 11.464 2.866
Fe 1.41057 12.8101 4.33764
Fe 2.866 11.464 2.866
Fe 4.223 12.8708 4.18123
Fe 5.732 11.464 2.866
Fe 7.13214 12.8554 4.22495
Fe 8.598 11.464 2.866
Fe 10.0673 12.9188 4.21695
Fe 11.464 11.464 2.866
Fe 12.9705 12.8834 4.26172
Fe 14.33 11.464 2.866
Fe 15.6981 12.9426 4.19227
Fe 0 14.33 2.866
Fe 1.52018 15.79 4.46181
Fe 2.866 14.33 2.866
Fe 4.25467 15.6858 4.13729
Fe 5.732 14.33 2.866
Fe 7.05315 15.7829 4.22941
Fe 8.598 14.33 2.866
Fe 10.0398 15.8412 4.15045
Fe 11.464 14.33 2.866
Fe 12.7916 15.7686 4.29235
Fe 14.33 14.33 2.866
Fe 15.7654 15.6993 4.25102
Fe 0.0144198 0.00383438 5.72236
Fe 1.49793 1.36233 7.00662
Fe 2.85673 0.0361807 5.68926
Fe 4.3945 1.54229 7.04572
Fe 5.71595 17.1146 5.75229
Fe 7.0871 1.46565 7.08479
Fe 8.50668 17.182 5.71385
Fe 9.93246 1.28561 7.02289
Fe 11.5184 0.0258211 5.63381
Fe 12.9251 1.43536 7.01191
Fe 14.2212 17.1311 5.55264
Fe 15.7429 1.51989 7.13071
Fe 17.1262 2.82176 5.74903
Fe 1.37932 4.27932 7.06795
Fe 2.89697 2.97193 5.80176
Fe 4.25311 4.35236 7.10563
Fe 5.67837 2.98724 5.70697
Fe 7.23612 4.2392 7.0572
Fe 8.53846 2.91813 5.70267
Fe 10.0374 4.50159 7.20259
Fe 11.389 2.8828 5.58582
Fe 12.8721 4.29612 6.89649
Fe 14.274 2.89074 5.70544
Fe 15.8036 4.30333 7.13376
Fe 0.0653047 5.80977 5.74569
Fe 1.37963 7.24937 7.10021
Fe 2.86092 5.75056 5.82071
Fe 4.372 7.197 7.13849
Fe 5.75019 5.71886 5.57656
Fe 7.09902 7.2561 7.02864
Fe 8.53149 5.82413 5.64256
Fe 10.0533 7.13883 7.02508
Fe 11.3236 5.79658 5.61881
Fe 12.7793 7.26107 7.02492
Fe 14.2862 5.78704 5.63671
Fe 15.6994 7.24357 7.06149
Fe 0.0316923 8.6488 5.56378
Fe 1.49093 10.0368 7.02214
Fe 2.94659 8.5947 5.72674
Fe 4.22606 9.99514 7.00068
Fe 5.69143 8.65746 5.66348
Fe 7.06523 10.0934 7.06668
Fe 8.54647 8.46389 5.63554
Fe 10.0202 9.82211 7.00084
Fe 11.4352 8.66345 5.68934
Fe 13.1062 10.1116 7.23076
Fe 14.3919 8.53309 5.79787
Fe 15.7574 10.0049 7.07334
Fe 0.0762751 11.55 5.6084
Fe 1.50389 12.8255 7.01695
Fe 2.94722 11.4638 5.71706
Fe 4.30193 12.9306 7.08969
Fe 5.58976 11.4875 5.5482
Fe 7.17227 12.8853 7.06504
Fe 8.51886 11.5255 5.62382
Fe 10.0781 12.9617 7.05839
Fe 11.4733 11.5774 5.59733
Fe 12.9473 12.9218 7.06561
Fe 14.3746 11.6256 5.75528
Fe 15.8733 12.9379 7.12189
Fe 17.1234 14.4056 5.76123
Fe 1.48645 15.7402 7.02761
Fe 2.90919 14.2788 5.76421
Fe 4.34978 15.6241 7.02123
Fe 5.73199 14.3009 5.55994
Fe 7.11535 15.7571 7.05488
Fe 8.58408 14.3268 5.52202
Fe 10.1068 15.7321 7.12439
Fe 11.4938 14.2671 5.67466
Fe 12.8129 15.8474 7.04932
Fe 14.3227 14.412 5.70134
Fe 15.623 15.7559 7.1154
Fe 17.0837 17.1448 8.34911
Fe 1.45449 1.3792 9.89899
Fe 2.89959 17.1712 8.48802
Fe 4.2706 1.53824 9.89869
Fe 5.74851 17.2414 8.42708
Fe 7.15131 1.44124 9.82018
Fe 8.61372 17.1344 8.4519
Fe 10.0592 1.49067 9.91375
Fe 11.5106 17.1841 8.4051
Fe 12.7993 1.43706 9.72287
Fe 14.3551 0.0331461 8.218
Fe 15.7651 1.37599 9.77154
Fe 0.0604673 2.83191 8.60391
Fe 1.47171 4.39396 9.80083
Fe 2.95084 2.93096 8.54202
Fe 4.26162 4.3003 9.88624
Fe 5.7337 2.89714 8.50422
Fe 7.10022 4.33714 9.84418
Fe 8.57605 2.84246 8.36343
Fe 9.98408 4.17654 9.78708
Fe 11.3451 2.81927 8.36157
Fe 12.8699 4.15738 9.73751
Fe 14.252 2.85698 8.40634
Fe 15.8385 4.3348 9.73251
Fe 0.0728439 5.69795 8.34136
Fe 1.35942 7.18776 9.81262
Fe 2.82871 5.84111 8.47911
Fe 4.2616 7.10484 9.69825
Fe 5.59549 5.60224 8.4027
Fe 7.03775 7.11404 9.78468
Fe 8.43409 5.73482 8.49644
Fe 10.0197 7.1813 9.93247
Fe 11.459 5.73655 8.4171
Fe 12.7723 7.15398 9.7776
Fe 14.338 5.86793 8.52943
Fe 15.79 7.14302 9.88994
Fe 0.024997 8.57388 8.37698
Fe 1.39769 10.0388 9.69792
Fe 2.68341 8.65387 8.41546
Fe 4.22247 10.0019 9.9628
Fe 5.76262 8.6457 8.50144
Fe 7.05797 10.1451 9.85413
Fe 8.63648 8.61011 8.61204
Fe 10.0363 9.95649 9.79551
Fe 11.5782 8.71083 8.44037
Fe 12.9746 10.0569 9.84534
Fe 14.225 8.53621 8.40771
Fe 15.8224 10.1207 9.81299
Fe 17.1206 11.488 8.46092
Fe 1.47272 12.8866 9.90629
Fe 2.86231 11.5081 8.50258
Fe 4.26315 12.9945 9.87104
Fe 5.71176 11.4516 8.42225
Fe 7.0789 12.9703 9.76386
Fe 8.58186 11.4066 8.43419
Fe 10.0969 12.8372 9.8766
Fe 11.3949 11.4327 8.49311
Fe 12.8855 13.0355 9.75486
Fe 14.4732 11.4865 8.42875
Fe 15.7908 12.9858 9.81543
Fe 0.057097 14.3536 8.39603
Fe 1.29332 15.718 9.84123
Fe 2.82649 14.2894 8.53683
Fe 4.22178 15.8464 9.87025
Fe 5.79949 14.3977 8.47372
Fe 7.14402 15.8122 9.80017
Fe 8.63458 14.1786 8.59265
Fe 10.0655 15.653 9.81888
Fe 11.348 14.3186 8.28589
Fe 12.8672 15.7844 9.72546
Fe 14.4183 14.4911 8.35496
Fe 15.6987 15.8954 9.79919
Fe -0.023004 0.0147641 11.1699
Fe 1.45334 1.33966 12.779
Fe 2.85155 17.0536 11.1608
Fe 4.20641 1.3927 12.7319
Fe 5.78383 0.0665735 11.2323
Fe 7.20585 1.41798 12.7783
Fe 8.68764 -0.0359453 11.2211
Fe 10.0885 1.45158 12.9781
Fe 11.3919 17.1967 11.2067
Fe 12.8492 1.389 12.6746
Fe 14.3585 0.0476284 11.1486
Fe 15.6864 1.57361 12.6513
Fe 17.1099 2.76716 11.277
Fe 1.38352 4.39267 12.6868
Fe 2.88852 2.90738 11.2686
Fe 4.42143 4.19788 12.8259
Fe 5.78554 2.92733 11.3828
Fe 7.30071 4.19549 12.8901
Fe 8.55852 2.89942 11.2624
Fe 10.1693 4.2845 12.8548
Fe 11.4675 2.80523 11.2464
Fe 12.8401 4.20978 12.6414
Fe 14.2779 2.92353 11.1587
Fe 15.644 4.33025 12.6465
Fe 17.1529 5.6649 11.3016
Fe 1.36521 7.14333 12.6535
Fe 2.94344 5.73422 11.3004
Fe 4.35201 7.15875 12.7223
Fe 5.65874 5.68242 11.3318
Fe 7.1928 7.2335 12.7023
Fe 8.54512 5.74221 11.1158
Fe 10.0555 7.18665 12.8251
Fe 11.4843 5.65178 11.2314
Fe 12.821 7.19776 12.5944
Fe 14.2823 5.76038 11.2252
Fe 15.8619 7.11416 12.6238
Fe 0.103803 8.53383 11.2386
Fe 1.45918 9.98004 12.4889
Fe 2.85386 8.52281 11.1745
Fe 4.08231 9.98 12.9286
Fe 5.74105 8.53156 11.2207
Fe 7.08056 10.038 12.8542
Fe 8.4973 8.55657 11.3021
Fe 10.0805 10.0346 12.6508
Fe 11.4102 8.63219 11.2246
Fe 12.8253 9.89924 12.7228
Fe 14.317 8.47553 11.205
Fe 15.8584 10.029 12.635
Fe 17.1732 11.5285 11.2289
Fe 1.297 12.8613 12.7104
Fe 2.93157 11.4984 11.3136
Fe 4.30566 12.9706 12.7919
Fe 5.60338 11.5239 11.3038
Fe 7.33787 13.0036 12.8873
Fe 8.56775 11.6017 11.2019
Fe 10.0365 12.8529 12.7396
Fe 11.5216 11.4173 11.1768
Fe 12.8356 12.8761 12.6207
Fe 14.4162 11.4888 11.3023
Fe 15.6578 12.7727 12.7435
Fe 17.1426 14.2691 11.2584
Fe 1.30353 15.7053 12.7438
Fe 2.80895 14.3028 11.3136
Fe 4.3199 15.82 12.7159
Fe 5.76906 14.4394 11.3078
Fe 7.24927 15.8435 12.8273
Fe 8.53464 14.3341 11.1991
Fe 9.91909 15.6471 12.6991
Fe 11.5229 14.3706 11.0825
Fe 12.9199 15.8927 12.784
Fe 14.2061 14.4839 11.148
Fe 15.7759 15.972 12.6207
O 9.21698 4.75505 38.506
O 12.5716 12.842 26.1023
O 6.43562 10.1111 33.8433
O 13.2092 1.51203 26.4553
O 6.96059 8.92855 23.0316
O 15.8835 3.08004 20.2196
O 13.8305 13.9381 40.6064
O 5.67338 16.105 40.6695
O 3.53236 11.9524 35.0921
O 0.366079 10.8393 31.9193
O 2.24917 16.6868 30.616
O 4.23836 10.16 20.2208
O 11.5199 4.54713 33.0659
O 9.47344 13.8802 32.085
O 6.28417 7.86402 41.8592
O 3.15462 0.622652 39.6281
O 1.14846 8.63192 34.9575
O 6.48834 2.4041 26.3009
O -0.0317353 6.23082 30.1287
O 1.27226 0.631544 16.9538
O 4.95871 11.3813 25.9809
O 11.0202 10.0641 26.3492
O 8.84682 1.24663 19.1597
O 16.6787 1.91769 32.0426
O 8.7367 6.82905 18.7398
O 3.26007 8.77455 24.505
O 4.65445 16.2697 34.0949
O 12.8785 15.8495 28.6906
O 16.7365 4.83634 39.7153
O 3.29763 3.30059 24.7443
O 8.82082 4.80704 23.7935
391
 Atoms. Timestep: 1100
Fe 0 0 0
Fe 1.433 1.433 1.433
Fe 2.866 0 0
Fe 4.299 1.433 1.433
Fe 5.732 0 0
Fe 7.165 1.433 1.433
Fe 8.598 0 0
Fe 10.031 1.433 1.433
Fe 11.464 0 0
Fe 12.897 1.433 1.433
Fe 14.33 0 0
Fe 15.763 1.433 1.433
Fe 0 2.866 0
Fe 1.433 4.299 1.433
Fe 2.866 2.866 0
Fe 4.299 4.299 1.433
Fe 5.732 2.866 0
Fe 7.165 4.299 1.433
Fe 8.598 2.866 0
Fe 10.031 4.299 1.433
Fe 11.464 2.866 0
Fe 12.897 4.299 1.433
Fe 14.33 2.866 0
Fe 15.763 4.299 1.433
Fe 0 5.732 0
Fe 1.433 7.165 1.433
Fe 2.866 5.732 0
Fe 4.299 7.165 1.433
Fe 5.732 5.732 0
Fe 7.165 7.165 1.433
Fe 8.598 5.732 0
Fe 10.031 7.165 1.433
Fe 11.464 5.732 0
Fe 12.897 7.165 1.433
Fe 14.33 5.732 0
Fe 15.763 7.165 1.433
Fe 0 8.598 0
Fe 1.433 10.031 1.433
Fe 2.866 8.598 0
Fe 4.299 10.031 1.433
Fe 5.732 8.598 0
Fe 7.165 10.031 1.433
Fe 8.598 8.598 0
Fe 10.031 10.031 1.433
Fe 11.464 8.598 0
Fe 12.897 10.031 1.433
Fe 14.33 8.598 0
Fe 15.763 10.031 1.433
Fe 0 11.464 0
Fe 1.433 12.897 1.433
Fe 2.866 11.464 0
Fe 4.299 12.897 1.433
Fe 5.732 11.464 0
Fe 7.165 12.897 1.433
Fe 8.598 11.464 0
Fe 10.031 12.897 1.433
Fe 11.464 11.464 0
Fe 12.897 12.897 1.433
Fe 14.33 11.464 0
Fe 15.763 12.897 1.433
Fe 0 14.33 0
Fe 1.433 15.763 1.433
Fe 2.866 14.33 0
Fe 4.299 15.763 1.433
Fe 5.732 14.33 0
Fe 7.165 15.763 1.433
Fe 8.598 14.33 0
Fe 10.031 15.763 1.433
Fe 11.464 14.33 0
Fe 12.897 15.763 1.433
Fe 14.33 14.33 0
Fe 15.763 15.763 1.433
Fe 0 0 2.866
Fe 1.50855 1.49391 4.27827
Fe 2.866 0 2.866
Fe 4.34066 1.44888 4.39054
Fe 5.732 0 2.866
Fe 7.17412 1.37735 4.34556
Fe 8.598 0 2.866
Fe 9.98142 1.37394 4.28336
Fe 11.464 0 2.866
Fe 13.0131 1.55752 4.21
Fe 14.33 0 2.866
Fe 15.8106 1.43438 4.3089
Fe 0 2.866 2.866
Fe 1.51048 4.32037 4.37617
Fe 2.866 2.866 2.866
Fe 4.25708 4.27475 4.36792
Fe 5.732 2.866 2.866
Fe 7.09707 4.29375 4.18906
Fe 8.598 2.866 2.866
Fe 9.94203 4.3988 4.26038
Fe 11.464 2.866 2.866
Fe 12.853 4.25146 4.29733
Fe 14.33 2.866 2.866
Fe 15.8655 4.37704 4.33811
Fe 0 5.732 2.866
Fe 1.45086 7.11151 4.25198
Fe 2.866 5.732 2.866
Fe 4.2624 7.02638 4.37249
Fe 5.732 5.732 2.866
Fe 7.12822 7.11799 4.34909
Fe 8.598 5.732 2.866
Fe 10.0914 7.20954 4.19749
Fe 11.464 5.732 2.866
Fe 12.8937 7.16946 4.34708
Fe 14.33 5.732 2.866
Fe 15.8164 7.10341 4.30861
Fe 0 8.598 2.866
Fe 1.51672 9.92958 4.19722
Fe 2.866 8.598 2.866
Fe 4.26784 9.98869 4.28876
Fe 5.732 8.598 2.866
Fe 7.07371 10.1141 4.23403
Fe 8.598 8.598 2.866
Fe 10.0425 10.0809 4.31663
Fe 11.464 8.598 2.866
Fe 12.9777 10.0459 4.40076
Fe 14.33 8.598 2.866
Fe 15.7762 10.1123 4.21472
Fe 0 11.464 2.866
Fe 1.49444 12.7818 4.24516
Fe 2.866 11.464 2.866
Fe 4.27719 12.9992 4.23833
Fe 5.732 11.464 2.866
Fe 7.09825 12.9772 4.27953
Fe 8.598 11.464 2.866
Fe 10.0912 12.9665 4.27366
Fe 11.464 11.464 2.866
Fe 12.9694 12.9254 4.26377
Fe 14.33 11.464 2.866
Fe 15.8074 12.9089 4.31045
Fe 0 14.33 2.866
Fe 1.41173 15.6438 4.40401
Fe 2.866 14.33 2.866
Fe 4.29288 15.7926 4.17365
Fe 5.732 14.33 2.866
Fe 7.00906 15.7468 4.24918
Fe 8.598 14.33 2.866
Fe 9.96489 15.8036 4.25284
Fe 11.464 14.33 2.866
Fe 12.8287 15.7779 4.22434
Fe 14.33 14.33 2.866
Fe 15.7303 15.7568 4.35083
Fe -0.0982046 -0.0543 5.7123
Fe 1.44194 1.40463 7.02358
Fe 2.88603 -0.00613786 5.66273
Fe 4.38294 1.47526 6.96506
Fe 5.71099 17.1327 5.72562
Fe 7.16233 1.429 6.96483
Fe 8.62131 17.1983 5.64766
Fe 10.015 1.37042 7.10923
Fe 11.4578 0.0358982 5.63165
Fe 12.7735 1.45511 6.96269
Fe 14.1499 17.2874 5.56004
Fe 15.6728 1.48873 7.11163
Fe 17.1321 2.74394 5.68453
Fe 1.37096 4.22109 7.13944
Fe 2.96166 2.95263 5.81607
Fe 4.26534 4.48065 7.0216
Fe 5.77606 2.91691 5.67537
Fe 7.26547 4.30539 6.95061
Fe 8.5798 2.92411 5.6979
Fe 10.0813 4.36496 7.14164
Fe 11.3762 2.89695 5.64182
Fe 12.8433 4.38843 6.99786
Fe 14.3447 2.99479 5.75622
Fe 15.7856 4.36464 7.12535
Fe 0.0940313 5.68203 5.68004
Fe 1.3607 7.12324 7.04061
Fe 2.8639 5.74351 5.70166
Fe 4.26135 7.19499 7.08112
Fe 5.81315 5.71384 5.58761
Fe 7.10968 7.23541 7.08924
Fe 8.54194 5.80228 5.64897
Fe 9.96456 7.14998 7.00068
Fe 11.3322 5.78765 5.62384
Fe 12.7712 7.2219 7.06798
Fe 14.3265 5.7027 5.64463
Fe 15.6689 7.2363 7.10936
Fe 0.0571271 8.66877 5.57977
Fe 1.45712 9.99676 6.98554
Fe 2.95256 8.63439 5.64624
Fe 4.29136 9.96903 7.10948
Fe 5.77988 8.62515 5.5936
Fe 7.16138 10.0342 6.99251
Fe 8.55491 8.60993 5.56786
Fe 10.0499 9.93112 7.0663
Fe 11.5259 8.67841 5.69277
Fe 13.0651 10.1701 7.20157
Fe 14.3531 8.56665 5.64855
Fe 15.8484 10.0258 7.07078
Fe 0.00575244 11.5392 5.65584
Fe 1.42802 12.8362 7.06497
Fe 2.91279 11.4646 5.70521
Fe 4.29709 12.9375 7.10719
Fe 5.69033 11.4781 5.65959
Fe 7.05276 13.0036 7.02597
Fe 8.5961 11.5252 5.58457
Fe 10.0238 12.9475 7.06096
Fe 11.4903 11.528 5.63053
Fe 12.9628 12.9207 7.10604
Fe 14.3699 11.6318 5.84291
Fe 15.8436 13.0076 7.18328
Fe 17.124 14.323 5.734
Fe 1.4834 15.7617 7.03009
Fe 2.87649 14.2652 5.79993
Fe 4.32814 15.7376 6.95897
Fe 5.75556 14.3447 5.63066
Fe 7.17767 15.7798 6.96641
Fe 8.5462 14.3446 5.47913
Fe 10.0256 15.7352 7.02281
Fe 11.5669 14.3161 5.71987
Fe 12.8332 15.8557 7.01191
Fe 14.3435 14.4895 5.64871
Fe 15.6755 15.8325 6.98427
Fe 17.13 17.2353 8.35892
Fe 1.4676 1.37627 9.88962
Fe 3.0238 17.1536 8.35884
Fe 4.28523 1.52667 9.84645
Fe 5.76091 17.3124 8.39036
Fe 7.15842 1.32823 9.74484
Fe 8.62286 17.0806 8.29322
Fe 10.0634 1.40169 9.83467
Fe 11.5476 17.2433 8.46543
Fe 12.8971 1.50847 9.67632
Fe 14.2623 0.00669515 8.23081
Fe 15.7637 1.42892 9.82
Fe 0.0642898 2.8202 8.52561
Fe 1.38611 4.32989 9.78544
Fe 2.94104 2.8296 8.40061
Fe 4.23456 4.33375 9.78324
Fe 5.79009 2.87037 8.37905
Fe 7.15205 4.32284 9.83229
Fe 8.56315 2.79059 8.38073
Fe 10.0206 4.21126 9.8253
Fe 11.4399 2.81498 8.33759
Fe 12.8823 4.20898 9.79874
Fe 14.2145 2.84925 8.3531
Fe 15.7901 4.25782 9.75415
Fe 0.00214188 5.70417 8.26024
Fe 1.37762 7.10221 9.79105
Fe 2.81949 5.77414 8.45927
Fe 4.31556 7.2135 9.68603
Fe 5.62882 5.64437 8.33986
Fe 7.01855 7.17745 9.77324
Fe 8.4888 5.66923 8.42419
Fe 9.93713 7.12394 9.82991
Fe 11.4254 5.75444 8.38447
Fe 12.6662 7.1336 9.77784
Fe 14.3774 5.80623 8.48949
Fe 15.7996 7.21923 9.90318
Fe -0.0395091 8.57763 8.34915
Fe 1.38349 10.1009 9.72486
Fe 2.74221 8.59027 8.42424
Fe 4.2297 9.92988 9.82597
Fe 5.69588 8.70881 8.43935
Fe 7.08532 10.0665 9.80994
Fe 8.51708 8.48289 8.51763
Fe 9.9533 9.95073 9.78767
Fe 11.4482 8.64685 8.44083
Fe 12.9916 9.95223 9.83274
Fe 14.2865 8.53897 8.40321
Fe 15.74 10.0528 9.8425
Fe 17.1665 11.5074 8.35264
Fe 1.43474 12.9224 9.85035
Fe 2.79892 11.391 8.41489
Fe 4.26312 12.9833 9.8201
Fe 5.71034 11.5101 8.40078
Fe 7.0889 12.8523 9.71357
Fe 8.60805 11.456 8.34596
Fe 10.1242 12.8242 9.79543
Fe 11.503 11.471 8.41873
Fe 12.9397 12.9538 9.72348
Fe 14.4575 11.486 8.4119
Fe 15.7804 13.0132 9.88623
Fe 0.0159001 14.4512 8.3286
Fe 1.33102 15.7918 9.84191
Fe 2.8102 14.3383 8.46527
Fe 4.25269 15.8228 9.85071
Fe 5.75498 14.4594 8.49078
Fe 7.05927 15.7802 9.76562
Fe 8.57802 14.1781 8.42306
Fe 10.0053 15.703 9.81417
Fe 11.3537 14.3721 8.26169
Fe 12.8238 15.8421 9.64582
Fe 14.2164 14.3616 8.40677
Fe 15.8961 15.8629 9.80973
Fe -0.0622384 0.0290245 11.279
Fe 1.51475 1.43075 12.7671
Fe 2.84798 17.1482 11.1236
Fe 4.31163 1.33682 12.6395
Fe 5.6667 -0.0148918 11.2585
Fe 7.29879 1.28034 12.7439
Fe 8.72035 -0.112664 11.2615
Fe 10.0099 1.48289 12.854
Fe 11.4153 17.1851 11.2869
Fe 12.849 1.37241 12.542
Fe 14.3045 0.0637537 11.1411
Fe 15.6515 1.54682 12.6661
Fe 17.0558 2.88628 11.2099
Fe 1.40401 4.18924 12.5825
Fe 2.94651 2.9017 11.2112
Fe 4.38894 4.22688 12.8277
Fe 5.74716 2.93757 11.3287
Fe 7.34821 4.243 12.9585
Fe 8.64515 2.8233 11.2022
Fe 10.0412 4.38148 12.8049
Fe 11.4658 2.95794 11.2143
Fe 12.8328 4.27132 12.7639
Fe 14.3984 2.87959 11.2526
Fe 15.6206 4.2885 12.6475
Fe 17.1244 5.66496 11.2813
Fe 1.51905 7.08921 12.7195
Fe 2.94965 5.73601 11.2752
Fe 4.38885 7.1184 12.6811
Fe 5.729 5.63457 11.2962
Fe 7.12324 7.25707 12.6143
Fe 8.5084 5.79952 11.1522
Fe 10.0038 7.20281 12.7984
Fe 11.429 5.72273 11.3441
Fe 12.9671 7.11793 12.6323
Fe 14.2164 5.71182 11.1425
Fe 15.8523 7.11365 12.5652
Fe 0.046123 8.60966 11.1967
Fe 1.44294 10.0452 12.4943
Fe 2.77673 8.54507 11.1673
Fe 4.05773 10.0035 12.8453
Fe 5.74324 8.66402 11.2384
Fe 7.08783 9.97767 12.7423
Fe 8.59751 8.586 11.2443
Fe 10.0217 10.0714 12.6333
Fe 11.4829 8.66573 11.3037
Fe 12.8938 9.97674 12.6682
Fe 14.3464 8.54893 11.2185
Fe 15.8756 9.99918 12.6401
Fe 17.1865 11.4558 11.2727
Fe 1.34782 12.8915 12.6672
Fe 2.9617 11.4672 11.2184
Fe 4.35735 12.9362 12.6433
Fe 5.661 11.4927 11.2387
Fe 7.21435 12.9567 12.8285
Fe 8.57674 11.5303 11.281
Fe 10.0381 12.9794 12.7607
Fe 11.4262 11.4814 11.242
Fe 12.8344 12.9605 12.6397
Fe 14.2036 11.4504 11.3377
Fe 15.674 12.8798 12.7851
Fe 17.1352 14.252 11.3481
Fe 1.28537 15.6739 12.7463
Fe 2.79068 14.3601 11.2497
Fe 4.31068 15.7222 12.7534
Fe 5.83342 14.433 11.3425
Fe 7.21086 15.7789 12.8516
Fe 8.62702 14.2744 11.1716
Fe 9.80789 15.6986 12.7087
Fe 11.5242 14.3176 11.2015
Fe 12.9138 15.8385 12.6604
Fe 14.2719 14.5143 11.2495
Fe 15.8537 15.9057 12.556
O 9.11853 4.49587 38.414
O 12.4584 12.9726 26.2117
O 6.33213 9.95402 33.8102
O 13.2129 1.49518 26.1848
O 7.23809 8.77118 22.9613
O 16.3202 2.93862 19.9686
O 13.8465 14.0146 40.9676
O 5.53652 16.2745 41.0194
O 3.45779 12.1145 35.3493
O 0.607679 11.0958 31.8849
O 1.99419 16.4424 30.4686
O 4.01704 10.1393 19.8975
O 11.787 4.74198 32.6424
O 9.40001 13.7124 32.463
O 6.51105 7.58597 42.2219
O 3.08348 0.460875 39.6843
O 0.742798 8.79488 34.9918
O 6.66829 2.3151 26.5636
O -0.307768 6.19418 30.1138
O 1.12635 0.466016 16.376
O 5.23683 11.4884 26.1895
O 11.1855 10.2871 26.0162
O 8.61844 1.48171 18.9055
O 16.9659 1.88143 31.7837
O 8.66476 6.5813 18.3875
O 3.18946 8.7575 24.5972
O 4.90944 16.4514 33.836
O 12.679 15.8181 28.4871
O 16.8251 4.65169 39.7496
O 3.1486 3.44996 24.483
O 9.11479 4.69886 24.0463
391
 Atoms. Timestep: 1200
Fe 0 0 0
Fe 1.433 1.433 1.433
Fe 2.866 0 0
Fe 4.299 1.433 1.433
Fe 5.732 0 0
Fe 7.165 1.433 1.433
Fe 8.598 0 0
Fe 10.031 1.433 1.433
Fe 11.464 0 0
Fe 12.897 1.433 1.433
Fe 14.33 0 0
Fe 15.763 1.433 1.433
Fe 0 2.866 0
Fe 1.433 4.299 1.433
Fe 2.866 2.866 0
Fe 4.299 4.299 1.433
Fe 5.732 2.866 0
Fe 7.165 4.299 1.433
Fe 8.598 2.866 0
Fe 10.031 4.299 1.433
Fe 11.464 2.866 0
Fe 12.897 4.299 1.433
Fe 14.33 2.866 0
Fe 15.763 4.299 1.433
Fe 0 5.732 0
Fe 1.433 7.165 1.433
Fe 2.866 5.732 0
Fe 4.299 7.165 1.433
Fe 5.732 5.732 0
Fe 7.165 7.165 1.433
Fe 8.598 5.732 0
Fe 10.031 7.165 1.433
Fe 11.464 5.732 0
Fe 12.897 7.165 1.433
Fe 14.33 5.732 0
Fe 15.763 7.165 1.433
Fe 0 8.598 0
Fe 1.433 10.031 1.433
Fe 2.866 8.598 0
Fe 4.299 10.031 1.433
Fe 5.732 8.598 0
Fe 7.165 10.031 1.433
Fe 8.598 8.598 0
Fe 10.031 10.031 1.433
Fe 11.464 8.598 0
Fe 12.897 10.031 1.433
Fe 14.33 8.598 0
Fe 15.763 10.031 1.433
Fe 0 11.464 0
Fe 1.433 12.897 1.433
Fe 2.866 11.464 0
Fe 4.299 12.897 1.433
Fe 5.732 11.464 0
Fe 7.165 12.897 1.433
Fe 8.598 11.464 0
Fe 10.031 12.897 1.433
Fe 11.464 11.464 0
Fe 12.897 12.897 1.433
Fe 14.33 11.464 0
Fe 15.763 12.897 1.433
Fe 0 14.33 0
Fe 1.433 15.763 1.433
Fe 2.866 14.33 0
Fe 4.299 15.763 1.433
Fe 5.732 14.33 0
Fe 7.165 15.763 1.433
Fe 8.598 14.33 0
Fe 10.031 15.763 1.433
Fe 11.464 14.33 0
Fe 12.897 15.763 1.433
Fe 14.33 14.33 0
Fe 15.763 15.763 1.433
Fe 0 0 2.866
Fe 1.49691 1.50832 4.28286
Fe 2.866 0 2.866
Fe 4.30571 1.44777 4.26315
Fe 5.732 0 2.866
Fe 7.1465 1.32888 4.2498
Fe 8.598 0 2.866
Fe 10.0935 1.4776 4.28128
Fe 11.464 0 2.866
Fe 12.9086 1.5947 4.2167
Fe 14.33 0 2.866
Fe 15.8066 1.4885 4.33672
Fe 0 2.866 2.866
Fe 1.46948 4.37185 4.33647
Fe 2.866 2.866 2.866
Fe 4.29809 4.29514 4.34673
Fe 5.732 2.866 2.866
Fe 7.12786 4.23523 4.17198
Fe 8.598 2.866 2.866
Fe 9.93319 4.37854 4.34404
Fe 11.464 2.866 2.866
Fe 12.8918 4.32132 4.23358
Fe 14.33 2.866 2.866
Fe 15.8024 4.35137 4.28562
Fe 0 5.732 2.866
Fe 1.3987 7.17088 4.29963
Fe 2.866 5.732 2.866
Fe 4.30971 7.01309 4.40696
Fe 5.732 5.732 2.866
Fe 7.26648 7.08715 4.24136
Fe 8.598 5.732 2.866
Fe 10.0675 7.21804 4.25596
Fe 11.464 5.732 2.866
Fe 12.9205 7.12574 4.29404
Fe 14.33 5.732 2.866
Fe 15.7961 7.15636 4.26267
Fe 0 8.598 2.866
Fe 1.45649 9.97664 4.16241
Fe 2.866 8.598 2.866
Fe 4.33091 10.1404 4.22365
Fe 5.732 8.598 2.866
Fe 7.10199 10.0372 4.32495
Fe 8.598 8.598 2.866
Fe 10.0812 10.1076 4.33565
Fe 11.464 8.598 2.866
Fe 12.8457 10.0567 4.43704
Fe 14.33 8.598 2.866
Fe 15.722 10.1439 4.23108
Fe 0 11.464 2.866
Fe 1.53164 12.8599 4.18503
Fe 2.866 11.464 2.866
Fe 4.34024 13.0405 4.32504
Fe 5.732 11.464 2.866
Fe 7.09785 13.011 4.27669
Fe 8.598 11.464 2.866
Fe 10.086 12.9778 4.3063
Fe 11.464 11.464 2.866
Fe 12.9433 12.9534 4.27231
Fe 14.33 11.464 2.866
Fe 15.8728 12.8925 4.39042
Fe 0 14.33 2.866
Fe 1.32544 15.5797 4.23116
Fe 2.866 14.33 2.866
Fe 4.29316 15.866 4.29566
Fe 5.732 14.33 2.866
Fe 7.09589 15.7643 4.24277
Fe 8.598 14.33 2.866
Fe 9.96201 15.7182 4.3513
Fe 11.464 14.33 2.866
Fe 12.897 15.7863 4.15428
Fe 14.33 14.33 2.866
Fe 15.7156 15.8451 4.32635
Fe 17.0657 17.1466 5.64884
Fe 1.402 1.4447 7.07157
Fe 2.89707 17.148 5.61363
Fe 4.32479 1.39754 6.95636
Fe 5.71885 17.1998 5.62123
Fe 7.2661 1.38227 6.88364
Fe 8.69941 -0.00398586 5.56116
Fe 10.0896 1.49036 7.12022
Fe 11.3669 0.0383585 5.60841
Fe 12.6917 1.51709 6.90561
Fe 14.2113 0.227097 5.60724
Fe 15.6422 1.44033 7.03126
Fe 17.2077 2.77354 5.64285
Fe 1.42598 4.18586 7.13805
Fe 2.93764 2.85631 5.72801
Fe 4.31304 4.4738 6.96076
Fe 5.85985 2.84907 5.63558
Fe 7.2046 4.39047 6.91808
Fe 8.6774 2.89144 5.63017
Fe 10.0391 4.18352 6.99354
Fe 11.3721 2.90702 5.67432
Fe 12.8256 4.46604 7.14585
Fe 14.402 3.01781 5.70875
Fe 15.7369 4.35792 7.06176
Fe 0.0380941 5.60431 5.60851
Fe 1.40048 7.05861 6.93724
Fe 2.83548 5.74879 5.60011
Fe 4.19598 7.20551 6.9794
Fe 5.80566 5.72968 5.68558
Fe 7.11156 7.16339 7.11478
Fe 8.59717 5.74344 5.64858
Fe 9.88143 7.21651 7.02181
Fe 11.4296 5.74958 5.63385
Fe 12.8497 7.14137 7.07905
Fe 14.3596 5.67656 5.69257
Fe 15.7265 7.16009 7.05487
Fe 0.0314088 8.6204 5.63195
Fe 1.3919 9.9833 6.94908
Fe 2.87931 8.60228 5.58106
Fe 4.36231 10.0018 7.16503
Fe 5.80328 8.56781 5.57381
Fe 7.27339 9.99675 6.95415
Fe 8.59844 8.76945 5.55302
Fe 10.0347 10.1301 7.10062
Fe 11.5755 8.67515 5.68302
Fe 12.9101 10.1186 7.04662
Fe 14.3323 8.65759 5.52156
Fe 15.8804 10.0572 7.01458
Fe 17.1444 11.4527 5.69224
Fe 1.36869 12.9035 7.11103
Fe 2.87034 11.4545 5.6497
Fe 4.2982 12.9203 7.11221
Fe 5.78537 11.4789 5.7662
Fe 7.01962 13.0435 6.96792
Fe 8.66161 11.5105 5.60673
Fe 9.95365 12.8659 6.98316
Fe 11.514 11.4464 5.73397
Fe 12.9293 12.9492 7.09707
Fe 14.4069 11.5555 5.77691
Fe 15.7323 13.0586 7.15698
Fe 17.2045 14.23 5.64247
Fe 1.44141 15.8141 7.06078
Fe 2.83067 14.2852 5.70311
Fe 4.30463 15.8497 6.97221
Fe 5.6986 14.3833 5.7237
Fe 7.24172 15.7646 6.9274
Fe 8.55855 14.3611 5.5853
Fe 9.93032 15.7539 6.88665
Fe 11.5619 14.395 5.66094
Fe 12.8675 15.8081 6.94519
Fe 14.3246 14.4466 5.61934
Fe 15.7503 15.893 6.92044
Fe 17.2517 0.128671 8.40695
Fe 1.46179 1.42108 9.84034
Fe 3.02836 17.19 8.27386
Fe 4.3579 1.44818 9.78422
Fe 5.72886 0.0881241 8.37642
Fe 7.20776 1.28571 9.79524
Fe 8.61455 17.0815 8.27875
Fe 10.0305 1.30417 9.76759
Fe 11.4442 0.0694143 8.47825
Fe 12.989 1.52078 9.77453
Fe 14.2229 0.00588844 8.39253
Fe 15.7203 1.48501 9.83925
Fe 0.0156198 2.79436 8.37073
Fe 1.34899 4.23257 9.84081
Fe 2.88532 2.7534 8.30202
Fe 4.2769 4.34588 9.72613
Fe 5.80447 2.8889 8.29446
Fe 7.19449 4.24211 9.82667
Fe 8.57117 2.77474 8.4514
Fe 10.0459 4.33693 9.87782
Fe 11.5157 2.87971 8.37556
Fe 12.8676 4.35693 9.85877
Fe 14.2659 2.89574 8.35263
Fe 15.6851 4.22993 9.81075
Fe 17.0948 5.76642 8.37095
Fe 1.39218 7.02858 9.82325
Fe 2.80475 5.67313 8.41699
Fe 4.35589 7.26583 9.82
Fe 5.77231 5.74751 8.34605
Fe 7.02705 7.21351 9.82132
Fe 8.59463 5.64732 8.35714
Fe 9.91921 7.07265 9.7494
Fe 11.3836 5.74513 8.43332
Fe 12.7022 7.13132 9.85216
Fe 14.3213 5.6968 8.41388
Fe 15.7933 7.22674 9.83723
Fe 17.1138 8.60206 8.3969
Fe 1.35986 10.1208 9.82376
Fe 2.84206 8.5119 8.42989
Fe 4.25285 9.96197 9.72149
Fe 5.65168 8.70358 8.3482
Fe 7.17882 9.99108 9.79882
Fe 8.42624 8.45417 8.34365
Fe 9.91624 10.0276 9.83033
Fe 11.2959 8.56359 8.45336
Fe 12.9251 9.93465 9.84229
Fe 14.3788 8.57825 8.46459
Fe 15.6794 9.98511 9.87419
Fe 17.2392 11.5117 8.34529
Fe 1.34961 12.9445 9.78555
Fe 2.81226 11.3548 8.35737
Fe 4.29773 12.9433 9.79559
Fe 5.67003 11.5293 8.40689
Fe 7.1327 12.7722 9.79569
Fe 8.60943 11.4866 8.30719
Fe 10.0829 12.8515 9.74193
Fe 11.5847 11.4821 8.35777
Fe 12.9662 12.8269 9.7951
Fe 14.3962 11.511 8.51255
Fe 15.732 12.9886 9.95806
Fe -0.0337399 14.4899 8.37486
Fe 1.42688 15.8548 9.8466
Fe 2.83041 14.4103 8.39807
Fe 4.32884 15.7438 9.82731
Fe 5.64815 14.4645 8.45884
Fe 7.10759 15.7521 9.80128
Fe 8.5125 14.3084 8.24708
Fe 9.9652 15.771 9.7899
Fe 11.4552 14.3929 8.40414
Fe 12.8233 15.855 9.71959
Fe 14.136 14.2931 8.48202
Fe 15.9338 15.7604 9.79506
Fe 17.1794 0.10701 11.3428
Fe 1.52305 1.50478 12.7084
Fe 2.82765 17.2533 11.1884
Fe 4.41319 1.32154 12.6009
Fe 5.64112 17.1148 11.2482
Fe 7.3254 1.21282 12.6808
Fe 8.6304 17.091 11.2098
Fe 9.96466 1.49766 12.6698
Fe 11.4451 17.1663 11.2914
Fe 12.8563 1.42894 12.4785
Fe 14.2354 0.0513052 11.0862
Fe 15.6659 1.44312 12.7412
Fe 17.1428 2.95682 11.1512
Fe 1.44144 4.03285 12.54
Fe 2.94282 2.87948 11.1556
Fe 4.30787 4.27732 12.8238
Fe 5.78141 2.86207 11.2032
Fe 7.32763 4.31202 12.9221
Fe 8.67631 2.76501 11.1632
Fe 9.88693 4.43745 12.7222
Fe 11.4431 3.0155 11.1913
Fe 12.865 4.32662 12.8739
Fe 14.3809 2.84363 11.2426
Fe 15.6437 4.28975 12.7036
Fe 17.1586 5.68374 11.1703
Fe 1.62869 7.05386 12.7731
Fe 2.90714 5.71332 11.1946
Fe 4.37693 7.12332 12.65
Fe 5.81286 5.63406 11.2017
Fe 7.07678 7.2077 12.593
Fe 8.52685 5.78167 11.2629
Fe 9.95044 7.21508 12.7355
Fe 11.3462 5.80341 11.3415
Fe 13.0785 7.05769 12.7246
Fe 14.2103 5.65853 11.0623
Fe 15.7919 7.13462 12.595
Fe -0.0135544 8.65305 11.1178
Fe 1.419 10.1014 12.6014
Fe 2.77766 8.5629 11.1565
Fe 4.16065 10.0155 12.6976
Fe 5.65726 8.77368 11.2371
Fe 7.11654 9.99078 12.628
Fe 8.66659 8.64433 11.1546
Fe 9.93888 10.1034 12.6766
Fe 11.5048 8.62142 11.3009
Fe 12.9752 10.0764 12.6715
Fe 14.3539 8.63284 11.209
Fe 15.8127 9.96459 12.6863
Fe 17.1684 11.4254 11.2244
Fe 1.46588 12.8889 12.6714
Fe 2.90335 11.4544 11.0833
Fe 4.36008 12.9001 12.5483
Fe 5.76574 11.4396 11.1772
Fe 7.06768 12.8754 12.7329
Fe 8.55949 11.4186 11.2859
Fe 10.0433 13.062 12.7678
Fe 11.3701 11.524 11.2489
Fe 12.8623 13.0332 12.7066
Fe 14.0972 11.4528 11.2604
Fe 15.6896 13.0075 12.8005
Fe 17.1363 14.3033 11.3235
Fe 1.3675 15.7181 12.7475
Fe 2.81526 14.4144 11.1788
Fe 4.25794 15.6487 12.7911
Fe 5.84448 14.3511 11.2735
Fe 7.1336 15.7013 12.8298
Fe 8.65437 14.22 11.1227
Fe 9.85544 15.7607 12.7558
Fe 11.4564 14.3228 11.2789
Fe 12.8807 15.7681 12.5678
Fe 14.3823 14.4473 11.2797
Fe 15.8214 15.7935 12.5982
O 9.02884 4.23521 38.3203
O 12.3981 13.1745 26.3022
O 6.25274 9.77293 33.7725
O 13.2251 1.50093 25.8933
O 7.52641 8.61968 22.8868
O 16.7422 2.81022 19.7223
O 13.8592 14.0875 41.3271
O 5.47466 16.3962 41.4157
O 3.37558 12.2858 35.6278
O 0.831275 11.3624 31.8283
O 1.75276 16.1817 30.3022
O 3.78186 10.1324 19.5472
O 12.0386 4.93875 32.2244
O 9.34265 13.5488 32.8449
O 6.73235 7.32071 42.5947
O 2.94327 0.335653 39.7072
O 0.329204 8.93903 35.0513
O 6.84971 2.21306 26.8433
O 16.6167 6.16447 30.0866
O 0.989937 0.289117 15.7146
O 5.51794 11.6254 26.4164
O 11.3136 10.4027 25.6784
O 8.39278 1.69125 18.6299
O 17.2373 1.85762 31.5466
O 8.60354 6.34556 17.9971
O 3.08659 8.72829 24.6882
O 5.17322 16.6494 33.5843
O 12.4801 15.7912 28.3184
O 16.9037 4.4748 39.7902
O 2.98341 3.59036 24.2169
O 9.423 4.5935 24.2978
